      -----------------------------------------------------------      
     |                   =====================                   |     
     |                           x T B                           |     
     |                   =====================                   |     
     |                         S. Grimme                         |     
     |          Mulliken Center for Theoretical Chemistry        |     
     |                    University of Bonn                     |     
      -----------------------------------------------------------      

   * xtb version 6.7.1 (edcfbbe) compiled by 'VssAdministrator@runnervmowedg' on 2025-09-04

   xtb is free software: you can redistribute it and/or modify it under
   the terms of the GNU Lesser General Public License as published by
   the Free Software Foundation, either version 3 of the License, or
   (at your option) any later version.
   
   xtb is distributed in the hope that it will be useful,
   but WITHOUT ANY WARRANTY; without even the implied warranty of
   MERCHANTABILITY or FITNESS FOR A PARTICULAR PURPOSE.  See the
   GNU Lesser General Public License for more details.
   
   Cite this work as:
   * C. Bannwarth, E. Caldeweyher, S. Ehlert, A. Hansen, P. Pracht,
     J. Seibert, S. Spicher, S. Grimme, WIREs Comput. Mol. Sci., 2020, 11,
     e01493. DOI: 10.1002/wcms.1493
   
   for GFN2-xTB:
   * C. Bannwarth, S. Ehlert and S. Grimme., J. Chem. Theory Comput., 2019,
     15, 1652-1671. DOI: 10.1021/acs.jctc.8b01176
   for GFN1-xTB:
   * S. Grimme, C. Bannwarth, P. Shushkov, J. Chem. Theory Comput., 2017,
     13, 1989-2009. DOI: 10.1021/acs.jctc.7b00118
   for GFN0-xTB:
   * P. Pracht, E. Caldeweyher, S. Ehlert, S. Grimme, ChemRxiv, 2019, preprint.
     DOI: 10.26434/chemrxiv.8326202.v1
   for GFN-FF:
   * S. Spicher and S. Grimme, Angew. Chem. Int. Ed., 2020, 59, 15665-15673.
     DOI: 10.1002/anie.202004239
   
   for ALPB and GBSA implicit solvation:
   * S. Ehlert, M. Stahn, S. Spicher, S. Grimme, J. Chem. Theory Comput.,
     2021, 17, 4250-4261. DOI: 10.1021/acs.jctc.1c00471
   
   for ddCOSMO and CPCM-X implicit solvation:
   * M. Stahn, S. Ehlert, S. Grimme, J. Phys. Chem. A,
     2023, XX, XXXX-XXXX. DOI: 10.1021/acs.jpca.3c04382
   
   for DFT-D4:
   * E. Caldeweyher, C. Bannwarth and S. Grimme, J. Chem. Phys., 2017,
     147, 034112. DOI: 10.1063/1.4993215
   * E. Caldeweyher, S. Ehlert, A. Hansen, H. Neugebauer, S. Spicher,
     C. Bannwarth and S. Grimme, J. Chem. Phys., 2019, 150, 154122.
     DOI: 10.1063/1.5090222
   * E. Caldeweyher, J.-M. Mewes, S. Ehlert and S. Grimme, Phys. Chem. Chem. Phys.
     2020, 22, 8499-8512. DOI: 10.1039/D0CP00502A
   
   for sTDA-xTB:
   * S. Grimme and C. Bannwarth, J. Chem. Phys., 2016, 145, 054103.
     DOI: 10.1063/1.4959605
   
   in the mass-spec context:
   * V. Asgeirsson, C. Bauer and S. Grimme, Chem. Sci., 2017, 8, 4879.
     DOI: 10.1039/c7sc00601b
   * J. Koopman and S. Grimme, ACS Omega 2019, 4, 12, 15120-15133.
     DOI: 10.1021/acsomega.9b02011
   
   for metadynamics refer to:
   * S. Grimme, J. Chem. Theory Comput., 2019, 155, 2847-2862
     DOI: 10.1021/acs.jctc.9b00143
   
   for SPH calculations refer to:
   * S. Spicher and S. Grimme, J. Chem. Theory Comput., 2021, 17, 1701-1714
     DOI: 10.1021/acs.jctc.0c01306
   
   for ONIOM refer to:
   * C. Plett, A. Katbashev, S. Ehlert, S. Grimme, M. Bursch,
     Phys. Chem. Chem. Phys., 2023, 25, 17860-17868. DOI: 10.1039/D3CP02178E
   
   for DIPRO refer to:
   * J. Kohn, N. Gildemeister, S. Grimme, D. Fazzi, A. Hansen,
     J. Chem. Phys., 2023, just accepted.
   
   for PTB refer to:
   * S. Grimme, M. Mueller, A. Hansen, J. Chem. Phys., 2023, 158, 124111.
     DOI: 10.1063/5.0137838
   
   with help from (in alphabetical order)
   P. Atkinson, C. Bannwarth, F. Bohle, G. Brandenburg, E. Caldeweyher
   M. Checinski, S. Dohm, S. Ehlert, S. Ehrlich, I. Gerasimov, C. Hölzer
   A. Katbashev, J. Kohn, J. Koopman, C. Lavigne, S. Lehtola, F. März, M. Müller,
   F. Musil, H. Neugebauer, J. Pisarek, C. Plett, P. Pracht, F. Pultar,
   J. Seibert, P. Shushkov, S. Spicher, M. Stahn, M. Steiner, T. Strunk,
   J. Stückrath, T. Rose, and J. Unsleber
   
 * started run on 2026/07/30 at 19:57:33.792     
   ID    Z sym.   atoms
    1    6 C      1, 2
    2    7 N      3
    3   53 I      4
    4    1 H      5-12

           -------------------------------------------------
          |                Calculation Setup                |
           -------------------------------------------------

          program call               : xtb Mol_18.xyz --gfn 2 --sp --alpb acetonitrile
          coordinate file            : Mol_18.xyz
          omp threads                :                    32


           -------------------------------------------------
          |                 G F N 2 - x T B                 |
           -------------------------------------------------

        Reference                      10.1021/acs.jctc.8b01176
      * Hamiltonian:
        H0-scaling (s, p, d)           1.850000    2.230000    2.230000
        zeta-weighting                 0.500000
      * Dispersion:
        s8                             2.700000
        a1                             0.520000
        a2                             5.000000
        s9                             5.000000
      * Repulsion:
        kExp                           1.500000    1.000000
        rExp                           1.000000
      * Coulomb:
        alpha                          2.000000
        third order                    shell-resolved
        anisotropic                    true
        a3                             3.000000
        a5                             4.000000
        cn-shift                       1.200000
        cn-exp                         4.000000
        max-rad                        5.000000

      * Solvation model:               ALPB
        Solvent                        acetonitrile
        Parameter file                 internal GFN2-xTB/ALPB
        Dielectric constant                3.7500E+01
        Reference state                gsolv [1 M gas/solution]
        Free energy shift                  5.1987E-03 Eh       3.2622E+00 kcal/mol
        Temperature                        2.9815E+02 K
        Density                            7.8600E-01 kg/L
        Solvent mass                       4.1050E+01 g/mol
        Interaction kernel             P16
        Born radius scaling (c1)           1.7214E+00
        Born radii integrator          GBOBC
        Born offset                        0.0000E+00 a0       0.0000E+00 AA
        H-bond correction              true
        Ion screening                  false
        Surface tension                    1.0000E-05 Eh       1.5569E+01 dyn/cm
        Grid points                               230 per atom

          ...................................................
          :                      SETUP                      :
          :.................................................:
          :  # basis functions                  30          :
          :  # atomic orbitals                  29          :
          :  # shells                           17          :
          :  # electrons                        28          :
          :  max. iterations                   250          :
          :  Hamiltonian                  GFN2-xTB          :
          :  restarted?                      false          :
          :  GBSA solvation                   true          :
          :  PC potential                    false          :
          :  electronic temp.          300.0000000     K    :
          :  accuracy                    1.0000000          :
          :  -> integral cutoff          0.2500000E+02      :
          :  -> integral neglect         0.1000000E-07      :
          :  -> SCF convergence          0.1000000E-05 Eh   :
          :  -> wf. convergence          0.1000000E-03 e    :
          :  Broyden damping             0.4000000          :
          :  net charge                          0          :
          :  unpaired electrons                  0          :
          ...................................................

 iter      E             dE          RMSdq      gap      omega  full diag
   1    -13.2240064 -0.132240E+02  0.248E+01    1.79       0.0  T
   2    -13.3084036 -0.843972E-01  0.177E+01    2.44       1.0  T
   3    -13.7255489 -0.417145E+00  0.128E+01    2.36       1.0  T
   4    -15.6167933 -0.189124E+01  0.109E+01    4.22       1.0  T
   5    -15.0631918  0.553602E+00  0.110E+01    3.95       1.0  T
   6    -15.4261280 -0.362936E+00  0.111E+01    4.13       1.0  T
   7    -13.2853097  0.214082E+01  0.130E+01    1.81       1.0  T
   8    -13.1450831  0.140227E+00  0.130E+01    1.97       1.0  T
   9    -17.0992650 -0.395418E+01  0.285E+01    2.72       1.0  T
  10    -18.3182937 -0.121903E+01  0.250E+01    4.26       1.0  T
  11    -17.8712645  0.447029E+00  0.122E+01    4.88       1.0  T
  12    -16.7439406  0.112732E+01  0.324E+01    1.41       1.0  T
  13    -16.6256780  0.118263E+00  0.336E+01    2.32       1.0  T
  14    -18.6218119 -0.199613E+01  0.264E+01    4.31       1.0  T
  15    -19.0957159 -0.473904E+00  0.262E+01    4.48       1.0  T
  16    -19.7693060 -0.673590E+00  0.199E+01    4.72       1.0  T
  17    -19.6757442  0.935618E-01  0.196E+01    4.64       1.0  T
  18    -20.4628389 -0.787095E+00  0.717E+00    5.38       1.0  T
  19    -20.5193620 -0.565231E-01  0.472E+00    5.62       1.0  T
  20    -20.5205033 -0.114126E-02  0.471E+00    5.64       1.0  T
  21    -20.5223354 -0.183217E-02  0.726E+00    5.43       1.0  T
  22    -20.5334586 -0.111232E-01  0.474E+00    5.57       1.0  T
  23    -20.5305546  0.290401E-02  0.243E+00    5.64       1.0  T
  24    -20.5255555  0.499906E-02  0.155E+00    5.67       1.0  T
  25    -20.5328848 -0.732932E-02  0.815E-01    5.66       1.0  T
  26    -20.5349775 -0.209267E-02  0.756E-01    5.64       1.0  T
  27    -20.5362577 -0.128023E-02  0.484E-01    5.65       1.0  T
  28    -20.5374459 -0.118817E-02  0.265E-01    5.67       1.0  T
  29    -20.5376622 -0.216287E-03  0.129E-01    5.67       1.0  T
  30    -20.5376885 -0.262821E-04  0.918E-02    5.67       1.0  T
  31    -20.5377201 -0.315875E-04  0.519E-02    5.66       1.0  T
  32    -20.5377264 -0.634406E-05  0.238E-02    5.66       1.2  T
  33    -20.5377293 -0.290172E-05  0.124E-02    5.66       2.3  T
  34    -20.5377294 -0.420088E-07  0.808E-03    5.66       3.6  T
  35    -20.5377294 -0.754299E-07  0.278E-03    5.66      10.4  T
  36    -20.5377295 -0.470784E-07  0.495E-04    5.66      58.3  T
  37    -20.5377295 -0.166203E-08  0.205E-04    5.66     140.7  T

   *** convergence criteria satisfied after 37 iterations ***

         #    Occupation            Energy/Eh            Energy/eV
      -------------------------------------------------------------
         1        2.0000           -3.8791312            -105.5565
       ...           ...                  ...                  ...
         8        2.0000           -0.3977047             -10.8221
         9        2.0000           -0.3664886              -9.9727
        10        2.0000           -0.3025535              -8.2329
        11        2.0000           -0.2938006              -7.9947
        12        2.0000           -0.2556830              -6.9575
        13        2.0000           -0.2284120              -6.2154
        14        2.0000           -0.0231728              -0.6306 (HOMO)
        15                          0.1848598               5.0303 (LUMO)
        16                          0.2228075               6.0629
        17                          0.2467805               6.7152
        18                          0.2978464               8.1048
        19                          0.4155607              11.3080
       ...                                ...                  ...
        29                          7.9956499             217.5727
      -------------------------------------------------------------
                  HL-Gap            0.2080326 Eh            5.6609 eV
             Fermi-level            0.0808435 Eh            2.1999 eV

 SCC (total)                   0 d,  0 h,  0 min,  0.043 sec
 SCC setup                      ...        0 min,  0.001 sec (  1.351%)
 Dispersion                     ...        0 min,  0.000 sec (  0.599%)
 classical contributions        ...        0 min,  0.000 sec (  0.244%)
 integral evaluation            ...        0 min,  0.009 sec ( 20.071%)
 iterations                     ...        0 min,  0.032 sec ( 74.016%)
 molecular gradient             ...        0 min,  0.001 sec (  3.136%)
 printout                       ...        0 min,  0.000 sec (  0.541%)

         :::::::::::::::::::::::::::::::::::::::::::::::::::::
         ::                     SUMMARY                     ::
         :::::::::::::::::::::::::::::::::::::::::::::::::::::
         :: total energy             254.713632720493 Eh    ::
         :: total w/o Gsasa/hb       254.750482124696 Eh    ::
         :: gradient norm           1143.495235692457 Eh/a0 ::
         :: HOMO-LUMO gap              5.660855006012 eV    ::
         ::.................................................::
         :: SCC energy               -20.537728330263 Eh    ::
         :: -> isotropic ES          -13.138586139987 Eh    ::
         :: -> anisotropic ES         -0.031742623411 Eh    ::
         :: -> anisotropic XC         -0.143114893660 Eh    ::
         :: -> dispersion             -0.007722398783 Eh    ::
         :: -> Gsolv                  -0.015477119023 Eh    ::
         ::    -> Gelec                0.021372285179 Eh    ::
         ::    -> Gsasa               -0.008933071444 Eh    ::
         ::    -> Ghb                 -0.033114987510 Eh    ::
         ::    -> Gshift               0.005198654751 Eh    ::
         :: repulsion energy         275.251361050756 Eh    ::
         :: add. restraining           0.000000000000 Eh    ::
         :: total charge               0.000000000000 e     ::
         :::::::::::::::::::::::::::::::::::::::::::::::::::::

           -------------------------------------------------
          |                Property Printout                |
           -------------------------------------------------

    * Orbital Energies and Occupations

         #    Occupation            Energy/Eh            Energy/eV
      -------------------------------------------------------------
         1        2.0000           -3.8791312            -105.5565
         2        2.0000           -3.7762817            -102.7579
         3        2.0000           -3.6137853             -98.3361
         4        2.0000           -3.3269077             -90.5298
         5        2.0000           -3.3136946             -90.1702
         6        2.0000           -0.4771889             -12.9850
         7        2.0000           -0.4457450             -12.1293
         8        2.0000           -0.3977047             -10.8221
         9        2.0000           -0.3664886              -9.9727
        10        2.0000           -0.3025535              -8.2329
        11        2.0000           -0.2938006              -7.9947
        12        2.0000           -0.2556830              -6.9575
        13        2.0000           -0.2284120              -6.2154
        14        2.0000           -0.0231728              -0.6306 (HOMO)
        15                          0.1848598               5.0303 (LUMO)
        16                          0.2228075               6.0629
        17                          0.2467805               6.7152
        18                          0.2978464               8.1048
        19                          0.4155607              11.3080
        20                          0.4611621              12.5489
        21                          0.6311600              17.1747
        22                          0.7967065              21.6795
        23                          1.1161779              30.3727
        24                          1.3037681              35.4773
        25                          2.4418932              66.4473
       ...                                ...                  ...
        29                          7.9956499             217.5727
      -------------------------------------------------------------
                  HL-Gap            0.2080326 Eh            5.6609 eV
             Fermi-level            0.0808435 Eh            2.1999 eV

     #   Z          covCN         q      C6AA      α(0)
     1   6 C        4.704     3.276     2.579     2.281
     2   6 C        5.620     1.268     7.939     4.001
     3   7 N        4.375    -0.797    44.167     9.871
     4  53 I        8.220    -7.567  2245.734    81.806
     5   1 H        1.835     0.723     0.164     0.631
     6   1 H        1.834     0.859     0.114     0.526
     7   1 H        1.835     0.744     0.154     0.613
     8   1 H        1.793     0.456     0.384     0.967
     9   1 H        1.768     0.343     0.591     1.200
    10   1 H        0.859    -0.057     4.298     3.248
    11   1 H        0.895     0.130     1.538     1.941
    12   1 H        2.697     0.621     0.221     0.735

 Mol. C6AA /au·bohr⁶  :       4176.370147
 Mol. C8AA /au·bohr⁸  :     281259.754926
 Mol. α(0) /au        :        107.819150


Wiberg/Mayer (AO) data.
largest (>0.10) Wiberg bond orders for each atom

 ---------------------------------------------------------------------------
     #   Z sym  total        # sym  WBO       # sym  WBO       # sym  WBO
 ---------------------------------------------------------------------------
     1   6 C    1.293 --     2 C    0.711     4 I    0.142     8 H    0.107
     2   6 C    2.410 --     1 C    0.711     7 H    0.312     5 H    0.287
                             9 H    0.278     3 N    0.268     6 H    0.235
                             8 H    0.228
     3   7 N    2.624 --    10 H    0.833    11 H    0.647    12 H    0.584
                             2 C    0.268     4 I    0.197
     4  53 I   -1.028 --     3 N    0.197     1 C    0.142
     5   1 H    0.477 --     2 C    0.287     9 H    0.156     7 H    0.134
     6   1 H    0.262 --     2 C    0.235     8 H    0.114     7 H    0.113
     7   1 H    0.447 --     2 C    0.312     5 H    0.134     6 H    0.113
     8   1 H    0.792 --     2 C    0.228     9 H    0.188    11 H    0.125
                             6 H    0.114     1 C    0.107
     9   1 H    0.883 --     2 C    0.278     8 H    0.188     5 H    0.156
    10   1 H    0.997 --     3 N    0.833
    11   1 H    0.983 --     3 N    0.647     8 H    0.125
    12   1 H    0.614 --     3 N    0.584
 ---------------------------------------------------------------------------

Topologies differ in total number of bonds
Writing topology from bond orders to xtbtopo.mol

molecular dipole:
                 x           y           z       tot (Debye)
 q only:        0.762       1.037       0.025
   full:       -3.950       1.806       1.492      11.673
molecular quadrupole (traceless):
                xx          xy          yy          xz          yz          zz
 q only:       -0.973      -1.927      -3.061     -10.223       0.624       4.034
  q+dip:      -16.877      -0.235       4.606     -10.066       0.473      12.271
   full:      -14.433       0.768       3.820      -8.070       0.649      10.613


           -------------------------------------------------
          | TOTAL ENERGY              254.713632720493 Eh   |
          | GRADIENT NORM            1143.495235692457 Eh/α |
          | HOMO-LUMO GAP               5.660855006012 eV   |
           -------------------------------------------------

------------------------------------------------------------------------
 * finished run on 2026/07/30 at 19:57:33.860     
------------------------------------------------------------------------
 total:
 * wall-time:     0 d,  0 h,  0 min,  0.067 sec
 *  cpu-time:     0 d,  0 h,  0 min,  0.047 sec
 * ratio c/w:     0.700 speedup
 SCF:
 * wall-time:     0 d,  0 h,  0 min,  0.043 sec
 *  cpu-time:     0 d,  0 h,  0 min,  0.031 sec
 * ratio c/w:     0.724 speedup

