63
Mol_0
C 8.212609 -0.598679 1.675550
C 6.970008 -0.469785 0.807666
C 7.146247 0.609548 -0.261322
C 5.965704 0.698678 -1.233688
C 4.668218 1.163603 -0.567857
C 3.538531 1.433023 -1.567405
C 3.107702 0.235199 -2.420413
C 2.685255 -1.016222 -1.644817
C 1.490774 -0.782182 -0.716358
C 1.049235 -2.086999 -0.048190
C -0.065802 -1.896145 0.984146
C -1.390256 -1.432624 0.371152
C -2.495594 -1.371099 1.429879
C -3.871468 -1.011586 0.854765
C -3.991228 0.455551 0.443540
C -5.205351 0.814632 -0.421703
N -6.590977 0.736788 0.243789
C -7.133370 -0.688252 0.275230
C -6.596353 1.324622 1.647824
C -7.557516 1.567209 -0.618124
Cl 0.000000 0.000000 0.000000
H 8.432139 0.343198 2.188448
H 9.084826 -0.874504 1.074330
H 8.065489 -1.373044 2.434981
H 6.762159 -1.435217 0.332146
H 6.116758 -0.232603 1.451854
H 8.051517 0.393417 -0.842328
H 7.304283 1.583665 0.217268
H 6.231107 1.403899 -2.030893
H 5.819708 -0.277739 -1.709247
H 4.861891 2.092127 -0.016447
H 4.334777 0.428944 0.172213
H 3.847972 2.241281 -2.242140
H 2.671245 1.818388 -1.018223
H 2.274886 0.552148 -3.060944
H 3.922558 -0.035788 -3.102287
H 2.423892 -1.794075 -2.373422
H 3.532891 -1.406951 -1.070303
H 0.664292 -0.358551 -1.297306
H 1.754141 -0.054278 0.058841
H 1.910956 -2.537238 0.460267
H 0.723952 -2.803456 -0.812243
H -0.223323 -2.853991 1.495389
H 0.259048 -1.180136 1.748828
H -1.685784 -2.123221 -0.427620
H -1.257506 -0.446190 -0.082523
H -2.576515 -2.353932 1.911247
H -2.222977 -0.655843 2.215375
H -4.099468 -1.666911 0.006341
H -4.602873 -1.221914 1.640196
H -3.111401 0.726716 -0.151537
H -3.944303 1.094365 1.332701
H -5.242950 0.193705 -1.324654
H -5.080801 1.856493 -0.743113
H -6.562088 -1.281215 0.987003
H -8.178829 -0.652772 0.598101
H -7.062708 -1.111441 -0.730797
H -6.009059 0.679212 2.305554
H -7.630921 1.364846 2.002623
H -6.169074 2.330572 1.602928
H -8.559460 1.499550 -0.183399
H -7.550623 1.157294 -1.632546
H -7.216191 2.606791 -0.618323
