      -----------------------------------------------------------      
     |                   =====================                   |     
     |                           x T B                           |     
     |                   =====================                   |     
     |                         S. Grimme                         |     
     |          Mulliken Center for Theoretical Chemistry        |     
     |                    University of Bonn                     |     
      -----------------------------------------------------------      

   * xtb version 6.7.1 (edcfbbe) compiled by 'VssAdministrator@runnervmowedg' on 2025-09-04

   xtb is free software: you can redistribute it and/or modify it under
   the terms of the GNU Lesser General Public License as published by
   the Free Software Foundation, either version 3 of the License, or
   (at your option) any later version.
   
   xtb is distributed in the hope that it will be useful,
   but WITHOUT ANY WARRANTY; without even the implied warranty of
   MERCHANTABILITY or FITNESS FOR A PARTICULAR PURPOSE.  See the
   GNU Lesser General Public License for more details.
   
   Cite this work as:
   * C. Bannwarth, E. Caldeweyher, S. Ehlert, A. Hansen, P. Pracht,
     J. Seibert, S. Spicher, S. Grimme, WIREs Comput. Mol. Sci., 2020, 11,
     e01493. DOI: 10.1002/wcms.1493
   
   for GFN2-xTB:
   * C. Bannwarth, S. Ehlert and S. Grimme., J. Chem. Theory Comput., 2019,
     15, 1652-1671. DOI: 10.1021/acs.jctc.8b01176
   for GFN1-xTB:
   * S. Grimme, C. Bannwarth, P. Shushkov, J. Chem. Theory Comput., 2017,
     13, 1989-2009. DOI: 10.1021/acs.jctc.7b00118
   for GFN0-xTB:
   * P. Pracht, E. Caldeweyher, S. Ehlert, S. Grimme, ChemRxiv, 2019, preprint.
     DOI: 10.26434/chemrxiv.8326202.v1
   for GFN-FF:
   * S. Spicher and S. Grimme, Angew. Chem. Int. Ed., 2020, 59, 15665-15673.
     DOI: 10.1002/anie.202004239
   
   for ALPB and GBSA implicit solvation:
   * S. Ehlert, M. Stahn, S. Spicher, S. Grimme, J. Chem. Theory Comput.,
     2021, 17, 4250-4261. DOI: 10.1021/acs.jctc.1c00471
   
   for ddCOSMO and CPCM-X implicit solvation:
   * M. Stahn, S. Ehlert, S. Grimme, J. Phys. Chem. A,
     2023, XX, XXXX-XXXX. DOI: 10.1021/acs.jpca.3c04382
   
   for DFT-D4:
   * E. Caldeweyher, C. Bannwarth and S. Grimme, J. Chem. Phys., 2017,
     147, 034112. DOI: 10.1063/1.4993215
   * E. Caldeweyher, S. Ehlert, A. Hansen, H. Neugebauer, S. Spicher,
     C. Bannwarth and S. Grimme, J. Chem. Phys., 2019, 150, 154122.
     DOI: 10.1063/1.5090222
   * E. Caldeweyher, J.-M. Mewes, S. Ehlert and S. Grimme, Phys. Chem. Chem. Phys.
     2020, 22, 8499-8512. DOI: 10.1039/D0CP00502A
   
   for sTDA-xTB:
   * S. Grimme and C. Bannwarth, J. Chem. Phys., 2016, 145, 054103.
     DOI: 10.1063/1.4959605
   
   in the mass-spec context:
   * V. Asgeirsson, C. Bauer and S. Grimme, Chem. Sci., 2017, 8, 4879.
     DOI: 10.1039/c7sc00601b
   * J. Koopman and S. Grimme, ACS Omega 2019, 4, 12, 15120-15133.
     DOI: 10.1021/acsomega.9b02011
   
   for metadynamics refer to:
   * S. Grimme, J. Chem. Theory Comput., 2019, 155, 2847-2862
     DOI: 10.1021/acs.jctc.9b00143
   
   for SPH calculations refer to:
   * S. Spicher and S. Grimme, J. Chem. Theory Comput., 2021, 17, 1701-1714
     DOI: 10.1021/acs.jctc.0c01306
   
   for ONIOM refer to:
   * C. Plett, A. Katbashev, S. Ehlert, S. Grimme, M. Bursch,
     Phys. Chem. Chem. Phys., 2023, 25, 17860-17868. DOI: 10.1039/D3CP02178E
   
   for DIPRO refer to:
   * J. Kohn, N. Gildemeister, S. Grimme, D. Fazzi, A. Hansen,
     J. Chem. Phys., 2023, just accepted.
   
   for PTB refer to:
   * S. Grimme, M. Mueller, A. Hansen, J. Chem. Phys., 2023, 158, 124111.
     DOI: 10.1063/5.0137838
   
   with help from (in alphabetical order)
   P. Atkinson, C. Bannwarth, F. Bohle, G. Brandenburg, E. Caldeweyher
   M. Checinski, S. Dohm, S. Ehlert, S. Ehrlich, I. Gerasimov, C. Hölzer
   A. Katbashev, J. Kohn, J. Koopman, C. Lavigne, S. Lehtola, F. März, M. Müller,
   F. Musil, H. Neugebauer, J. Pisarek, C. Plett, P. Pracht, F. Pultar,
   J. Seibert, P. Shushkov, S. Spicher, M. Stahn, M. Steiner, T. Strunk,
   J. Stückrath, T. Rose, and J. Unsleber
   
 * started run on 2026/07/30 at 19:57:23.407     
   ID    Z sym.   atoms
    1    6 C      1-16, 18-20
    2    7 N      17
    3   17 Cl     21
    4    1 H      22-63

           -------------------------------------------------
          |                Calculation Setup                |
           -------------------------------------------------

          program call               : xtb Mol_0.xyz --gfn 2 --sp --alpb acetonitrile
          coordinate file            : Mol_0.xyz
          omp threads                :                    32


           -------------------------------------------------
          |                 G F N 2 - x T B                 |
           -------------------------------------------------

        Reference                      10.1021/acs.jctc.8b01176
      * Hamiltonian:
        H0-scaling (s, p, d)           1.850000    2.230000    2.230000
        zeta-weighting                 0.500000
      * Dispersion:
        s8                             2.700000
        a1                             0.520000
        a2                             5.000000
        s9                             5.000000
      * Repulsion:
        kExp                           1.500000    1.000000
        rExp                           1.000000
      * Coulomb:
        alpha                          2.000000
        third order                    shell-resolved
        anisotropic                    true
        a3                             3.000000
        a5                             4.000000
        cn-shift                       1.200000
        cn-exp                         4.000000
        max-rad                        5.000000

      * Solvation model:               ALPB
        Solvent                        acetonitrile
        Parameter file                 internal GFN2-xTB/ALPB
        Dielectric constant                3.7500E+01
        Reference state                gsolv [1 M gas/solution]
        Free energy shift                  5.1987E-03 Eh       3.2622E+00 kcal/mol
        Temperature                        2.9815E+02 K
        Density                            7.8600E-01 kg/L
        Solvent mass                       4.1050E+01 g/mol
        Interaction kernel             P16
        Born radius scaling (c1)           1.7214E+00
        Born radii integrator          GBOBC
        Born offset                        0.0000E+00 a0       0.0000E+00 AA
        H-bond correction              true
        Ion screening                  false
        Surface tension                    1.0000E-05 Eh       1.5569E+01 dyn/cm
        Grid points                               230 per atom

          ...................................................
          :                      SETUP                      :
          :.................................................:
          :  # basis functions                 132          :
          :  # atomic orbitals                 131          :
          :  # shells                           85          :
          :  # electrons                       130          :
          :  max. iterations                   250          :
          :  Hamiltonian                  GFN2-xTB          :
          :  restarted?                      false          :
          :  GBSA solvation                   true          :
          :  PC potential                    false          :
          :  electronic temp.          300.0000000     K    :
          :  accuracy                    1.0000000          :
          :  -> integral cutoff          0.2500000E+02      :
          :  -> integral neglect         0.1000000E-07      :
          :  -> SCF convergence          0.1000000E-05 Eh   :
          :  -> wf. convergence          0.1000000E-03 e    :
          :  Broyden damping             0.4000000          :
          :  net charge                          0          :
          :  unpaired electrons                  0          :
          ...................................................

 iter      E             dE          RMSdq      gap      omega  full diag
   1    -69.6540584 -0.696541E+02  0.329E+00    4.84       0.0  T
   2    -69.9457427 -0.291684E+00  0.220E+00    1.71       1.0  T
   3    -69.9619402 -0.161974E-01  0.135E+00    1.26       1.0  T
   4    -69.9756928 -0.137526E-01  0.610E-01    1.00       1.0  T
   5    -69.9803812 -0.468838E-02  0.478E-01    1.25       1.0  T
   6    -69.9863815 -0.600032E-02  0.198E-01    1.79       1.0  T
   7    -69.9868817 -0.500239E-03  0.978E-02    1.84       1.0  T
   8    -69.9869961 -0.114383E-03  0.253E-02    1.80       1.0  T
   9    -69.9870013 -0.522047E-05  0.876E-03    1.82       1.4  T
  10    -69.9870016 -0.237119E-06  0.230E-03    1.82       5.5  T
  11    -69.9870016 -0.146480E-07  0.962E-04    1.82      13.1  T
  12    -69.9870016 -0.788700E-08  0.416E-04    1.82      30.3  T

   *** convergence criteria satisfied after 12 iterations ***

         #    Occupation            Energy/Eh            Energy/eV
      -------------------------------------------------------------
         1        2.0000           -1.0026381             -27.2832
       ...           ...                  ...                  ...
        59        2.0000           -0.3941885             -10.7264
        60        2.0000           -0.3895501             -10.6002
        61        2.0000           -0.3845870             -10.4651
        62        2.0000           -0.3743143             -10.1856
        63        2.0000           -0.2958919              -8.0516
        64        2.0000           -0.2057154              -5.5978
        65        2.0000           -0.1964997              -5.3470 (HOMO)
        66                         -0.1295794              -3.5260 (LUMO)
        67                         -0.0570407              -1.5522
        68                         -0.0427190              -1.1624
        69                         -0.0361163              -0.9828
        70                          0.0489749               1.3327
       ...                                ...                  ...
       131                          0.6927846              18.8516
      -------------------------------------------------------------
                  HL-Gap            0.0669203 Eh            1.8210 eV
             Fermi-level           -0.1630395 Eh           -4.4365 eV

 SCC (total)                   0 d,  0 h,  0 min,  0.133 sec
 SCC setup                      ...        0 min,  0.001 sec (  0.719%)
 Dispersion                     ...        0 min,  0.001 sec (  0.802%)
 classical contributions        ...        0 min,  0.000 sec (  0.086%)
 integral evaluation            ...        0 min,  0.065 sec ( 48.817%)
 iterations                     ...        0 min,  0.060 sec ( 45.531%)
 molecular gradient             ...        0 min,  0.005 sec (  3.773%)
 printout                       ...        0 min,  0.000 sec (  0.257%)

         :::::::::::::::::::::::::::::::::::::::::::::::::::::
         ::                     SUMMARY                     ::
         :::::::::::::::::::::::::::::::::::::::::::::::::::::
         :: total energy             -69.074933722488 Eh    ::
         :: total w/o Gsasa/hb       -69.050061398630 Eh    ::
         :: gradient norm              0.448044085791 Eh/a0 ::
         :: HOMO-LUMO gap              1.820993848518 eV    ::
         ::.................................................::
         :: SCC energy               -69.986924775908 Eh    ::
         :: -> isotropic ES            0.135649032568 Eh    ::
         :: -> anisotropic ES         -0.013426833254 Eh    ::
         :: -> anisotropic XC         -0.120871084802 Eh    ::
         :: -> dispersion             -0.054255738613 Eh    ::
         :: -> Gsolv                  -0.085793411722 Eh    ::
         ::    -> Gelec               -0.060921087863 Eh    ::
         ::    -> Gsasa               -0.027439579246 Eh    ::
         ::    -> Ghb                 -0.002631399363 Eh    ::
         ::    -> Gshift               0.005198654751 Eh    ::
         :: repulsion energy           0.911991053420 Eh    ::
         :: add. restraining           0.000000000000 Eh    ::
         :: total charge              -0.000000000000 e     ::
         :::::::::::::::::::::::::::::::::::::::::::::::::::::

           -------------------------------------------------
          |                Property Printout                |
           -------------------------------------------------

    * Orbital Energies and Occupations

         #    Occupation            Energy/Eh            Energy/eV
      -------------------------------------------------------------
         1        2.0000           -1.0026381             -27.2832
       ...           ...                  ...                  ...
        53        2.0000           -0.4192896             -11.4094
        54        2.0000           -0.4181311             -11.3779
        55        2.0000           -0.4121687             -11.2157
        56        2.0000           -0.4052825             -11.0283
        57        2.0000           -0.4042907             -11.0013
        58        2.0000           -0.4007079             -10.9038
        59        2.0000           -0.3941885             -10.7264
        60        2.0000           -0.3895501             -10.6002
        61        2.0000           -0.3845870             -10.4651
        62        2.0000           -0.3743143             -10.1856
        63        2.0000           -0.2958919              -8.0516
        64        2.0000           -0.2057154              -5.5978
        65        2.0000           -0.1964997              -5.3470 (HOMO)
        66                         -0.1295794              -3.5260 (LUMO)
        67                         -0.0570407              -1.5522
        68                         -0.0427190              -1.1624
        69                         -0.0361163              -0.9828
        70                          0.0489749               1.3327
        71                          0.0517415               1.4080
        72                          0.0642872               1.7493
        73                          0.0705047               1.9185
        74                          0.0747834               2.0350
        75                          0.0842847               2.2935
        76                          0.0925505               2.5184
       ...                                ...                  ...
       131                          0.6927846              18.8516
      -------------------------------------------------------------
                  HL-Gap            0.0669203 Eh            1.8210 eV
             Fermi-level           -0.1630395 Eh           -4.4365 eV

     #   Z          covCN         q      C6AA      α(0)
     1   6 C        3.750    -0.102    22.509     6.766
     2   6 C        3.799    -0.047    21.423     6.590
     3   6 C        3.801    -0.057    21.598     6.617
     4   6 C        3.799    -0.052    21.503     6.602
     5   6 C        3.799    -0.049    21.459     6.596
     6   6 C        3.798    -0.055    21.573     6.613
     7   6 C        3.798    -0.044    21.362     6.581
     8   6 C        3.800    -0.063    21.705     6.633
     9   6 C        4.682    -0.057    21.503     6.586
    10   6 C        4.221     0.019    20.162     6.377
    11   6 C        4.514     0.027    20.042     6.358
    12   6 C        4.610    -0.146    23.209     6.842
    13   6 C        3.800    -0.055    21.566     6.612
    14   6 C        3.799    -0.059    21.635     6.623
    15   6 C        3.798    -0.083    22.081     6.691
    16   6 C        3.730    -0.041    21.402     6.604
    17   7 N        3.599     0.102    19.473     6.554
    18   6 C        3.687    -0.097    22.569     6.801
    19   6 C        3.685    -0.100    22.617     6.808
    20   6 C        3.689    -0.105    22.712     6.821
    21  17 Cl       4.870    -0.753   125.456    17.136
    22   1 H        0.924     0.035     2.515     2.480
    23   1 H        0.924     0.033     2.547     2.496
    24   1 H        0.924     0.030     2.581     2.513
    25   1 H        0.924     0.020     2.728     2.583
    26   1 H        0.924     0.027     2.634     2.538
    27   1 H        0.924     0.027     2.635     2.538
    28   1 H        0.924     0.030     2.589     2.516
    29   1 H        0.924     0.025     2.663     2.552
    30   1 H        0.924     0.022     2.704     2.572
    31   1 H        0.924     0.024     2.675     2.558
    32   1 H        0.924     0.024     2.671     2.556
    33   1 H        0.924     0.018     2.758     2.597
    34   1 H        0.924     0.042     2.418     2.432
    35   1 H        0.924     0.013     2.843     2.637
    36   1 H        0.924    -0.000     3.060     2.735
    37   1 H        0.924    -0.040     3.852     3.069
    38   1 H        0.924    -0.033     3.706     3.011
    39   1 H        1.713     0.151     1.374     1.830
    40   1 H        1.328     0.054     2.254     2.344
    41   1 H        0.924    -0.070     4.614     3.359
    42   1 H        0.924    -0.061     4.379     3.272
    43   1 H        0.924    -0.091     5.269     3.590
    44   1 H        0.933     0.001     3.045     2.729
    45   1 H        0.924    -0.079     4.890     3.458
    46   1 H        1.765     0.278     0.774     1.373
    47   1 H        0.924    -0.024     3.509     2.929
    48   1 H        0.924     0.013     2.845     2.638
    49   1 H        0.924     0.028     2.622     2.532
    50   1 H        0.924     0.023     2.682     2.561
    51   1 H        0.924     0.080     1.977     2.199
    52   1 H        0.924     0.069     2.092     2.262
    53   1 H        0.924     0.090     1.877     2.143
    54   1 H        0.924     0.099     1.797     2.096
    55   1 H        0.925     0.103     1.761     2.075
    56   1 H        0.924     0.107     1.725     2.054
    57   1 H        0.924     0.100     1.781     2.087
    58   1 H        0.924     0.105     1.742     2.064
    59   1 H        0.924     0.109     1.705     2.042
    60   1 H        0.924     0.109     1.701     2.040
    61   1 H        0.924     0.111     1.691     2.033
    62   1 H        0.924     0.107     1.726     2.055
    63   1 H        0.924     0.109     1.708     2.044

 Mol. C6AA /au·bohr⁶  :      29077.997772
 Mol. C8AA /au·bohr⁸  :     639652.606100
 Mol. α(0) /au        :        254.002294


Wiberg/Mayer (AO) data.
largest (>0.10) Wiberg bond orders for each atom

 ---------------------------------------------------------------------------
     #   Z sym  total        # sym  WBO       # sym  WBO       # sym  WBO
 ---------------------------------------------------------------------------
     1   6 C    3.997 --     2 C    1.020    22 H    0.988    24 H    0.988
                            23 H    0.988
     2   6 C    3.998 --     1 C    1.020     3 C    1.009    25 H    0.978
                            26 H    0.977
     3   6 C    3.997 --     2 C    1.009     4 C    1.006    27 H    0.977
                            28 H    0.977
     4   6 C    3.998 --     5 C    1.009     3 C    1.006    29 H    0.977
                            30 H    0.976
     5   6 C    3.998 --     4 C    1.009     6 C    1.007    31 H    0.977
                            32 H    0.974
     6   6 C    3.996 --     7 C    1.007     5 C    1.007    33 H    0.978
                            34 H    0.975
     7   6 C    3.996 --     6 C    1.007     8 C    1.004    36 H    0.977
                            35 H    0.977
     8   6 C    3.967 --     7 C    1.004    37 H    0.974    38 H    0.971
                             9 C    0.914
     9   6 C    3.944 --    10 C    0.996    40 H    0.944     8 C    0.914
                            39 H    0.878    21 Cl   0.172
    10   6 C    3.980 --    11 C    1.001     9 C    0.996    41 H    0.973
                            42 H    0.973
    11   6 C    3.983 --    10 C    1.001    12 C    0.995    44 H    0.976
                            43 H    0.954
    12   6 C    3.838 --    13 C    0.997    11 C    0.995    45 H    0.965
                            46 H    0.675    21 Cl   0.164
    13   6 C    3.987 --    14 C    1.002    12 C    0.997    48 H    0.977
                            47 H    0.970
    14   6 C    3.998 --    15 C    1.008    13 C    1.002    49 H    0.977
                            50 H    0.971
    15   6 C    3.984 --    16 C    1.013    14 C    1.008    52 H    0.969
                            51 H    0.955
    16   6 C    3.929 --    15 C    1.013    53 H    0.966    54 H    0.966
                            17 N    0.919
    17   7 N    3.796 --    18 C    0.953    19 C    0.952    20 C    0.946
                            16 C    0.919
    18   6 C    3.921 --    57 H    0.976    56 H    0.975    55 H    0.969
                            17 N    0.953
    19   6 C    3.918 --    60 H    0.975    59 H    0.974    58 H    0.973
                            17 N    0.952
    20   6 C    3.915 --    62 H    0.977    63 H    0.975    61 H    0.974
                            17 N    0.946
    21  17 Cl   0.828 --    46 H    0.228     9 C    0.172    12 C    0.164
    22   1 H    0.999 --     1 C    0.988
    23   1 H    0.999 --     1 C    0.988
    24   1 H    0.999 --     1 C    0.988
    25   1 H    1.000 --     2 C    0.978
    26   1 H    0.999 --     2 C    0.977
    27   1 H    0.999 --     3 C    0.977
    28   1 H    0.999 --     3 C    0.977
    29   1 H    0.999 --     4 C    0.977
    30   1 H    1.000 --     4 C    0.976
    31   1 H    0.999 --     5 C    0.977
    32   1 H    0.999 --     5 C    0.974
    33   1 H    1.000 --     6 C    0.978
    34   1 H    0.998 --     6 C    0.975
    35   1 H    1.000 --     7 C    0.977
    36   1 H    1.000 --     7 C    0.977
    37   1 H    0.998 --     8 C    0.974
    38   1 H    0.999 --     8 C    0.971
    39   1 H    0.977 --     9 C    0.878
    40   1 H    0.997 --     9 C    0.944
    41   1 H    0.995 --    10 C    0.973
    42   1 H    0.996 --    10 C    0.973
    43   1 H    0.991 --    11 C    0.954
    44   1 H    1.000 --    11 C    0.976
    45   1 H    0.994 --    12 C    0.965
    46   1 H    0.923 --    12 C    0.675    21 Cl   0.228
    47   1 H    0.999 --    13 C    0.970
    48   1 H    1.000 --    13 C    0.977
    49   1 H    0.999 --    14 C    0.977
    50   1 H    0.999 --    14 C    0.971
    51   1 H    0.993 --    15 C    0.955
    52   1 H    0.995 --    15 C    0.969
    53   1 H    0.992 --    16 C    0.966
    54   1 H    0.990 --    16 C    0.966
    55   1 H    0.989 --    18 C    0.969
    56   1 H    0.988 --    18 C    0.975
    57   1 H    0.990 --    18 C    0.976
    58   1 H    0.989 --    19 C    0.973
    59   1 H    0.988 --    19 C    0.974
    60   1 H    0.988 --    19 C    0.975
    61   1 H    0.987 --    20 C    0.974
    62   1 H    0.989 --    20 C    0.977
    63   1 H    0.988 --    20 C    0.975
 ---------------------------------------------------------------------------

Topologies differ in total number of bonds
Writing topology from bond orders to xtbtopo.mol

molecular dipole:
                 x           y           z       tot (Debye)
 q only:      -12.874       3.662       0.319
   full:      -11.870       1.064       0.044      30.293
molecular quadrupole (traceless):
                xx          xy          yy          xz          yz          zz
 q only:      148.644     -26.447     -77.526      -1.279       2.251     -71.118
  q+dip:      143.438     -26.336     -73.699      -1.714       2.973     -69.738
   full:      145.255     -26.505     -74.494      -2.176       2.299     -70.761


           -------------------------------------------------
          | TOTAL ENERGY              -69.074933722488 Eh   |
          | GRADIENT NORM               0.448044085791 Eh/α |
          | HOMO-LUMO GAP               1.820993848518 eV   |
           -------------------------------------------------

------------------------------------------------------------------------
 * finished run on 2026/07/30 at 19:57:24.084     
------------------------------------------------------------------------
 total:
 * wall-time:     0 d,  0 h,  0 min,  0.676 sec
 *  cpu-time:     0 d,  0 h,  0 min,  0.172 sec
 * ratio c/w:     0.254 speedup
 SCF:
 * wall-time:     0 d,  0 h,  0 min,  0.133 sec
 *  cpu-time:     0 d,  0 h,  0 min,  0.125 sec
 * ratio c/w:     0.939 speedup

