18
Mol_12
C -1.655044 -0.208097 0.351053
C -0.907154 0.380641 -0.835000
C 0.527174 -0.124157 -0.690458
N 0.539893 -0.935488 0.558681
C -0.828249 -1.419127 0.726774
C 1.528703 1.030640 -0.570204
O 2.154002 1.490682 -1.519080
N 1.635517 1.565181 0.684734
H -1.672953 0.514226 1.176589
H -2.688543 -0.466144 0.102096
H -1.338807 -0.006491 -1.765896
H -0.995443 1.471895 -0.854015
H 0.813542 -0.751242 -1.542676
H 1.188061 -1.715788 0.450826
H -1.026838 -2.256835 0.048138
H -1.016999 -1.745069 1.753212
H 1.356695 0.952891 1.445867
H 2.386444 2.222283 0.839371
