25
Mol_17
C -2.285728 -0.129481 0.414091
C -1.831125 1.110465 -0.290073
C -0.375633 1.402670 -0.173245
C 0.478376 0.307969 0.343120
C 0.022507 -1.081009 0.118884
C -1.445807 -1.270822 -0.076039
C 1.861054 0.461967 -0.300093
N 2.771147 -0.562259 0.140828
I 0.000000 0.000000 0.000000
H -3.330284 -0.333495 0.108265
H -2.279603 0.000681 1.499443
H -2.441885 1.974666 0.072638
H -2.112423 0.990243 -1.369352
H 0.006180 1.747599 -1.175192
H -0.248103 2.300651 0.486625
H 0.662894 0.473900 1.443861
H 0.296614 -1.709778 1.008461
H 0.573112 -1.538599 -0.744550
H -1.840646 -2.199884 0.398357
H -1.635905 -1.381969 -1.170963
H 1.766759 0.395333 -1.406463
H 2.274513 1.441672 0.007165
H 2.601493 -1.483936 -0.346338
H 2.786483 -0.657614 1.178569
H 3.726011 -0.258972 -0.167998
