      -----------------------------------------------------------      
     |                   =====================                   |     
     |                           x T B                           |     
     |                   =====================                   |     
     |                         S. Grimme                         |     
     |          Mulliken Center for Theoretical Chemistry        |     
     |                    University of Bonn                     |     
      -----------------------------------------------------------      

   * xtb version 6.7.1 (edcfbbe) compiled by 'VssAdministrator@runnervmowedg' on 2025-09-04

   xtb is free software: you can redistribute it and/or modify it under
   the terms of the GNU Lesser General Public License as published by
   the Free Software Foundation, either version 3 of the License, or
   (at your option) any later version.
   
   xtb is distributed in the hope that it will be useful,
   but WITHOUT ANY WARRANTY; without even the implied warranty of
   MERCHANTABILITY or FITNESS FOR A PARTICULAR PURPOSE.  See the
   GNU Lesser General Public License for more details.
   
   Cite this work as:
   * C. Bannwarth, E. Caldeweyher, S. Ehlert, A. Hansen, P. Pracht,
     J. Seibert, S. Spicher, S. Grimme, WIREs Comput. Mol. Sci., 2020, 11,
     e01493. DOI: 10.1002/wcms.1493
   
   for GFN2-xTB:
   * C. Bannwarth, S. Ehlert and S. Grimme., J. Chem. Theory Comput., 2019,
     15, 1652-1671. DOI: 10.1021/acs.jctc.8b01176
   for GFN1-xTB:
   * S. Grimme, C. Bannwarth, P. Shushkov, J. Chem. Theory Comput., 2017,
     13, 1989-2009. DOI: 10.1021/acs.jctc.7b00118
   for GFN0-xTB:
   * P. Pracht, E. Caldeweyher, S. Ehlert, S. Grimme, ChemRxiv, 2019, preprint.
     DOI: 10.26434/chemrxiv.8326202.v1
   for GFN-FF:
   * S. Spicher and S. Grimme, Angew. Chem. Int. Ed., 2020, 59, 15665-15673.
     DOI: 10.1002/anie.202004239
   
   for ALPB and GBSA implicit solvation:
   * S. Ehlert, M. Stahn, S. Spicher, S. Grimme, J. Chem. Theory Comput.,
     2021, 17, 4250-4261. DOI: 10.1021/acs.jctc.1c00471
   
   for ddCOSMO and CPCM-X implicit solvation:
   * M. Stahn, S. Ehlert, S. Grimme, J. Phys. Chem. A,
     2023, XX, XXXX-XXXX. DOI: 10.1021/acs.jpca.3c04382
   
   for DFT-D4:
   * E. Caldeweyher, C. Bannwarth and S. Grimme, J. Chem. Phys., 2017,
     147, 034112. DOI: 10.1063/1.4993215
   * E. Caldeweyher, S. Ehlert, A. Hansen, H. Neugebauer, S. Spicher,
     C. Bannwarth and S. Grimme, J. Chem. Phys., 2019, 150, 154122.
     DOI: 10.1063/1.5090222
   * E. Caldeweyher, J.-M. Mewes, S. Ehlert and S. Grimme, Phys. Chem. Chem. Phys.
     2020, 22, 8499-8512. DOI: 10.1039/D0CP00502A
   
   for sTDA-xTB:
   * S. Grimme and C. Bannwarth, J. Chem. Phys., 2016, 145, 054103.
     DOI: 10.1063/1.4959605
   
   in the mass-spec context:
   * V. Asgeirsson, C. Bauer and S. Grimme, Chem. Sci., 2017, 8, 4879.
     DOI: 10.1039/c7sc00601b
   * J. Koopman and S. Grimme, ACS Omega 2019, 4, 12, 15120-15133.
     DOI: 10.1021/acsomega.9b02011
   
   for metadynamics refer to:
   * S. Grimme, J. Chem. Theory Comput., 2019, 155, 2847-2862
     DOI: 10.1021/acs.jctc.9b00143
   
   for SPH calculations refer to:
   * S. Spicher and S. Grimme, J. Chem. Theory Comput., 2021, 17, 1701-1714
     DOI: 10.1021/acs.jctc.0c01306
   
   for ONIOM refer to:
   * C. Plett, A. Katbashev, S. Ehlert, S. Grimme, M. Bursch,
     Phys. Chem. Chem. Phys., 2023, 25, 17860-17868. DOI: 10.1039/D3CP02178E
   
   for DIPRO refer to:
   * J. Kohn, N. Gildemeister, S. Grimme, D. Fazzi, A. Hansen,
     J. Chem. Phys., 2023, just accepted.
   
   for PTB refer to:
   * S. Grimme, M. Mueller, A. Hansen, J. Chem. Phys., 2023, 158, 124111.
     DOI: 10.1063/5.0137838
   
   with help from (in alphabetical order)
   P. Atkinson, C. Bannwarth, F. Bohle, G. Brandenburg, E. Caldeweyher
   M. Checinski, S. Dohm, S. Ehlert, S. Ehrlich, I. Gerasimov, C. Hölzer
   A. Katbashev, J. Kohn, J. Koopman, C. Lavigne, S. Lehtola, F. März, M. Müller,
   F. Musil, H. Neugebauer, J. Pisarek, C. Plett, P. Pracht, F. Pultar,
   J. Seibert, P. Shushkov, S. Spicher, M. Stahn, M. Steiner, T. Strunk,
   J. Stückrath, T. Rose, and J. Unsleber
   
 * started run on 2026/07/30 at 19:57:32.395     
   ID    Z sym.   atoms
    1    6 C      1-7
    2    7 N      8
    3   53 I      9
    4    1 H      10-25

           -------------------------------------------------
          |                Calculation Setup                |
           -------------------------------------------------

          program call               : xtb Mol_17.xyz --gfn 2 --sp --alpb acetonitrile
          coordinate file            : Mol_17.xyz
          omp threads                :                    32


           -------------------------------------------------
          |                 G F N 2 - x T B                 |
           -------------------------------------------------

        Reference                      10.1021/acs.jctc.8b01176
      * Hamiltonian:
        H0-scaling (s, p, d)           1.850000    2.230000    2.230000
        zeta-weighting                 0.500000
      * Dispersion:
        s8                             2.700000
        a1                             0.520000
        a2                             5.000000
        s9                             5.000000
      * Repulsion:
        kExp                           1.500000    1.000000
        rExp                           1.000000
      * Coulomb:
        alpha                          2.000000
        third order                    shell-resolved
        anisotropic                    true
        a3                             3.000000
        a5                             4.000000
        cn-shift                       1.200000
        cn-exp                         4.000000
        max-rad                        5.000000

      * Solvation model:               ALPB
        Solvent                        acetonitrile
        Parameter file                 internal GFN2-xTB/ALPB
        Dielectric constant                3.7500E+01
        Reference state                gsolv [1 M gas/solution]
        Free energy shift                  5.1987E-03 Eh       3.2622E+00 kcal/mol
        Temperature                        2.9815E+02 K
        Density                            7.8600E-01 kg/L
        Solvent mass                       4.1050E+01 g/mol
        Interaction kernel             P16
        Born radius scaling (c1)           1.7214E+00
        Born radii integrator          GBOBC
        Born offset                        0.0000E+00 a0       0.0000E+00 AA
        H-bond correction              true
        Ion screening                  false
        Surface tension                    1.0000E-05 Eh       1.5569E+01 dyn/cm
        Grid points                               230 per atom

          ...................................................
          :                      SETUP                      :
          :.................................................:
          :  # basis functions                  58          :
          :  # atomic orbitals                  57          :
          :  # shells                           35          :
          :  # electrons                        56          :
          :  max. iterations                   250          :
          :  Hamiltonian                  GFN2-xTB          :
          :  restarted?                      false          :
          :  GBSA solvation                   true          :
          :  PC potential                    false          :
          :  electronic temp.          300.0000000     K    :
          :  accuracy                    1.0000000          :
          :  -> integral cutoff          0.2500000E+02      :
          :  -> integral neglect         0.1000000E-07      :
          :  -> SCF convergence          0.1000000E-05 Eh   :
          :  -> wf. convergence          0.1000000E-03 e    :
          :  Broyden damping             0.4000000          :
          :  net charge                          0          :
          :  unpaired electrons                  0          :
          ...................................................

 iter      E             dE          RMSdq      gap      omega  full diag
   1    -27.5566357 -0.275566E+02  0.187E+01    1.19       0.0  T
   2    -27.5689347 -0.122991E-01  0.932E+00    0.62       1.0  T
   3    -26.9796744  0.589260E+00  0.772E+00    1.66       1.0  T
   4    -28.1047559 -0.112508E+01  0.236E+00    1.62       1.0  T
   5    -28.1334046 -0.286487E-01  0.184E+00    1.46       1.0  T
   6    -28.1616629 -0.282583E-01  0.133E+00    1.37       1.0  T
   7    -28.1813899 -0.197270E-01  0.111E+00    1.22       1.0  T
   8    -28.1954303 -0.140404E-01  0.106E+00    1.15       1.0  T
   9    -28.2602553 -0.648250E-01  0.126E+00    0.89       1.0  T
  10    -28.1704517  0.898036E-01  0.120E+00    1.29       1.0  T
  11    -28.0685721  0.101880E+00  0.314E+00    1.39       1.0  T
  12    -28.2550808 -0.186509E+00  0.136E+00    0.93       1.0  T
  13    -28.3265728 -0.714920E-01  0.171E+00    0.77       1.0  T
  14    -28.3692513 -0.426784E-01  0.193E+00    0.71       1.0  T
  15    -28.2910460  0.782052E-01  0.154E+00    0.84       1.0  T
  16    -28.2370262  0.540198E-01  0.125E+00    0.98       1.0  T
  17    -28.1744878  0.625384E-01  0.126E+00    1.27       1.0  T
  18    -28.1869260 -0.124382E-01  0.121E+00    1.20       1.0  T
  19    -28.2042576 -0.173316E-01  0.120E+00    1.11       1.0  T
  20    -28.2921802 -0.879226E-01  0.162E+00    0.83       1.0  T
  21    -28.2074075  0.847727E-01  0.120E+00    1.10       1.0  T
  22    -28.0545871  0.152820E+00  0.326E+00    1.38       1.0  T
  23    -27.8049392  0.249648E+00  0.624E+00    1.37       1.0  T
  24    -27.8453923 -0.404530E-01  0.587E+00    1.37       1.0  T
  25    -27.5003283  0.345064E+00  0.853E+00    1.43       1.0  T
  26    -27.5789430 -0.786146E-01  0.801E+00    1.41       1.0  T
  27    -27.4691867  0.109756E+00  0.874E+00    1.44       1.0  T
  28    -27.4591037  0.100830E-01  0.881E+00    1.44       1.0  T
  29    -27.5074405 -0.483369E-01  0.849E+00    1.43       1.0  T
  30    -27.7042199 -0.196779E+00  0.707E+00    1.39       1.0  T
  31    -27.7986886 -0.944688E-01  0.625E+00    1.38       1.0  T
  32    -27.8457199 -0.470312E-01  0.577E+00    1.37       1.0  T
  33    -27.9097730 -0.640531E-01  0.507E+00    1.36       1.0  T
  34    -27.9747603 -0.649873E-01  0.426E+00    1.36       1.0  T
  35    -28.0359931 -0.612328E-01  0.337E+00    1.37       1.0  T
  36    -28.0888096 -0.528165E-01  0.247E+00    1.39       1.0  T
  37    -28.1358125 -0.470028E-01  0.162E+00    1.39       1.0  T
  38    -28.1701383 -0.343258E-01  0.121E+00    1.29       1.0  T
  39    -28.1863511 -0.162129E-01  0.113E+00    1.21       1.0  T
  40    -28.2025566 -0.162055E-01  0.113E+00    1.13       1.0  T
  41    -28.2458685 -0.433119E-01  0.128E+00    0.95       1.0  T
  42    -28.3502931 -0.104425E+00  0.180E+00    0.73       1.0  T
  43    -28.3327997  0.174934E-01  0.172E+00    0.76       1.0  T
  44    -28.3884917 -0.556920E-01  0.198E+00    0.68       1.0  T
  45    -28.4939738 -0.105482E+00  0.239E+00    0.58       1.0  T
  46    -28.5683217 -0.743479E-01  0.265E+00    0.52       1.0  T
  47    -28.5796094 -0.112877E-01  0.268E+00    0.51       1.0  T
  48    -28.5803297 -0.720310E-03  0.268E+00    0.51       1.0  T
  49    -28.4958242  0.845056E-01  0.240E+00    0.57       1.0  T
  50    -28.4470045  0.488196E-01  0.222E+00    0.62       1.0  T
  51    -28.4496552 -0.265067E-02  0.223E+00    0.61       1.0  T
  52    -28.4753254 -0.256702E-01  0.232E+00    0.59       1.0  T
  53    -28.4752705  0.548913E-04  0.233E+00    0.59       1.0  T
  54    -28.3717589  0.103512E+00  0.191E+00    0.70       1.0  T
  55    -28.2797577  0.920012E-01  0.145E+00    0.86       1.0  T
  56    -28.2457860  0.339717E-01  0.130E+00    0.96       1.0  T
  57    -28.2325927  0.131932E-01  0.124E+00    1.00       1.0  T
  58    -28.2348061 -0.221340E-02  0.125E+00    0.99       1.0  T
  59    -28.2246870  0.101192E-01  0.122E+00    1.03       1.0  T
  60    -28.1922351  0.324519E-01  0.116E+00    1.18       1.0  T
  61    -28.1508582  0.413769E-01  0.150E+00    1.38       1.0  T
  62    -28.1308336  0.200246E-01  0.184E+00    1.42       1.0  T
  63    -28.1212630  0.957063E-02  0.203E+00    1.43       1.0  T
  64    -28.1159277  0.533526E-02  0.214E+00    1.43       1.0  T
  65    -28.1159015  0.262641E-04  0.214E+00    1.43       1.0  T
  66    -28.1211549 -0.525342E-02  0.203E+00    1.43       1.0  T
  67    -28.1302997 -0.914481E-02  0.184E+00    1.42       1.0  T
  68    -28.1421424 -0.118427E-01  0.162E+00    1.40       1.0  T
  69    -28.1562256 -0.140832E-01  0.139E+00    1.36       1.0  T
  70    -28.1733689 -0.171433E-01  0.121E+00    1.27       1.0  T
  71    -28.1958291 -0.224603E-01  0.113E+00    1.15       1.0  T
  72    -28.2189102 -0.230811E-01  0.117E+00    1.05       1.0  T
  73    -28.2152454  0.366483E-02  0.116E+00    1.06       1.0  T
  74    -28.2065407  0.870467E-02  0.114E+00    1.10       1.0  T
  75    -28.1890223  0.175184E-01  0.114E+00    1.19       1.0  T
  76    -28.1666356  0.223867E-01  0.127E+00    1.31       1.0  T
  77    -28.1592796  0.735607E-02  0.135E+00    1.34       1.0  T
  78    -28.1557346  0.354497E-02  0.140E+00    1.35       1.0  T
  79    -28.1563415 -0.606906E-03  0.139E+00    1.35       1.0  T
  80    -28.1605787 -0.423723E-02  0.134E+00    1.33       1.0  T
  81    -28.1666684 -0.608964E-02  0.127E+00    1.31       1.0  T
  82    -28.1740010 -0.733260E-02  0.121E+00    1.27       1.0  T
  83    -28.1855364 -0.115354E-01  0.115E+00    1.21       1.0  T
  84    -28.2096006 -0.240641E-01  0.114E+00    1.09       1.0  T
  85    -28.4152913 -0.205691E+00  0.218E+00    0.65       1.0  T
  86    -29.3893265 -0.974035E+00  0.480E+00    0.28       1.0  T
  87    -28.0936719  0.129565E+01  0.248E+00    1.37       1.0  T
  88    -26.9437910  0.114988E+01  0.115E+01    1.54       1.0  T
  89    -11.9558751  0.149879E+02  0.601E+01    4.32       1.0  T
  90     14.7891481  0.267450E+02  0.101E+02    1.25       1.0  T
  91     14.7934461  0.429804E-02  0.101E+02    1.25       1.0  T
  92      7.9845138 -0.680893E+01  0.891E+01    2.17       1.0  T
  93     -0.9165469 -0.890106E+01  0.738E+01    3.86       1.0  T
  94      8.9152319  0.983178E+01  0.905E+01    2.00       1.0  T
  95    -29.3077285 -0.382230E+02  0.293E+01    0.11       1.0  T
  96     24.2881760  0.535959E+02  0.177E+02    1.68       1.0  T
  97    -30.0789801 -0.543672E+02  0.705E+00    0.45       1.0  T
  98     48.7834618  0.788624E+02  0.631E+02    5.66       1.0  T
  99     49.1930037  0.409542E+00  0.778E+02    3.22       1.0  T
 100     49.2041482  0.111445E-01  0.793E+02    4.86       1.0  T
 101     30.2123812 -0.189918E+02  0.185E+02    1.16       1.0  T
 102     45.8583715  0.156460E+02  0.169E+03   41.53       1.0  T
 103     46.4549736  0.596602E+00  0.398E+03  121.59       1.0  T
 104     47.6478100  0.119284E+01  0.667E+03  115.31       1.0  T
 105     48.4703438  0.822534E+00  0.909E+03  400.76       1.0  T
 106     48.5197208  0.493770E-01  0.102E+04  648.57       1.0  T
 107     48.5122635 -0.745727E-02  0.996E+03  587.11       1.0  T
 108     48.4453454 -0.669181E-01  0.877E+03  347.09       1.0  T
 109     48.0291487 -0.416197E+00  0.738E+03  157.95       1.0  T
 110     47.1348402 -0.894308E+00  0.643E+03  140.16       1.0  T
 111     47.1224948 -0.123454E-01  0.660E+03  166.29       1.0  T
 112     46.2865564 -0.835938E+00  0.427E+03  208.76       1.0  T
 113     45.8599322 -0.426624E+00  0.230E+03  105.71       1.0  T
 114     45.2903876 -0.569545E+00  0.115E+03   23.04       1.0  T
 115     48.4529771  0.316259E+01  0.100E+03    1.43       1.0  T
 116     51.5483333  0.309536E+01  0.884E+02   20.94       1.0  T
 117     39.0047288 -0.125436E+02  0.376E+02   10.35       1.0  T
 118     43.0696551  0.406493E+01  0.866E+02    9.66       1.0  T
 119     48.4422777  0.537262E+01  0.222E+03  107.54       1.0  T
 120     48.6895930  0.247315E+00  0.205E+03  112.82       1.0  T
 121     49.3905428  0.700950E+00  0.264E+03  276.14       1.0  T
 122     49.4525279  0.619851E-01  0.298E+03  322.85       1.0  T
 123     49.3732054 -0.793224E-01  0.333E+03  365.78       1.0  T
 124     49.3816496  0.844419E-02  0.277E+03  252.96       1.0  T
 125     49.3698541 -0.117956E-01  0.234E+03  158.78       1.0  T
 126     51.3484255  0.197857E+01  0.182E+03    7.79       1.0  T
 127     49.0518349 -0.229659E+01  0.317E+03  218.54       1.0  T
 128     48.9424029 -0.109432E+00  0.294E+03  148.38       1.0  T
 129     51.1942948  0.225189E+01  0.196E+03   93.64       1.0  T
 130     48.7818323 -0.241246E+01  0.348E+03  188.01       1.0  T
 131     48.9689871  0.187155E+00  0.301E+03  137.83       1.0  T
 132     50.9942292  0.202524E+01  0.225E+03   97.82       1.0  T
 133     48.8138688 -0.218036E+01  0.367E+03  224.66       1.0  T
 134     49.3526246  0.538756E+00  0.308E+03  106.68       1.0  T
 135     50.7463514  0.139373E+01  0.263E+03  111.37       1.0  T
 136     49.2008220 -0.154553E+01  0.337E+03  138.93       1.0  T
 137     50.4956595  0.129484E+01  0.286E+03   97.51       1.0  T
 138     50.5177270  0.220676E-01  0.264E+03   32.79       1.0  T
 139     50.3106367 -0.207090E+00  0.214E+03  100.51       1.0  T
 140     50.2401353 -0.705015E-01  0.210E+03   93.70       1.0  T
 141     45.5617199 -0.467842E+01  0.161E+03   19.83       1.0  T
 142     46.3782384  0.816518E+00  0.605E+03  450.40       1.0  T
 143     45.2312374 -0.114700E+01  0.124E+03    9.24       1.0  T
 144     50.3592213  0.512798E+01  0.200E+03   99.16       1.0  T
 145     52.1555337  0.179631E+01  0.100E+03   36.25       1.0  T
 146     45.2548263 -0.690071E+01  0.132E+03   10.35       1.0  T
 147     46.2864884  0.103166E+01  0.449E+03  280.67       1.0  T
 148     51.2572344  0.497075E+01  0.798E+02   32.70       1.0  T
 149     48.9962335 -0.226100E+01  0.260E+03  123.34       1.0  T
 150     44.8705153 -0.412572E+01  0.760E+02    2.41       1.0  T
 151     46.3630222  0.149251E+01  0.508E+03  284.47       1.0  T
 152     51.0490436  0.468602E+01  0.784E+02   32.48       1.0  T
 153     49.0996910 -0.194935E+01  0.277E+03  190.44       1.0  T
 154     44.5578689 -0.454182E+01  0.549E+02    8.24       1.0  T
 155     46.3798015  0.182193E+01  0.541E+03  321.12       1.0  T
 156     50.1476803  0.376788E+01  0.617E+02   11.05       1.0  T
 157     49.1622462 -0.985434E+00  0.324E+03  300.75       1.0  T
 158     51.8448704  0.268262E+01  0.113E+02    2.17       1.0  T
 159     44.9836478 -0.686122E+01  0.117E+03   12.87       1.0  T
 160     41.7628679 -0.322078E+01  0.742E+02    4.06       1.0  T
 161     44.7914050  0.302854E+01  0.111E+03   14.17       1.0  T
 162     39.7645067 -0.502690E+01  0.419E+02    2.90       1.0  T
 163     49.2103001  0.944579E+01  0.164E+03   65.95       1.0  T
 164     45.1749281 -0.403537E+01  0.148E+03   35.12       1.0  T
 165     40.9072242 -0.426770E+01  0.724E+02    1.25       1.0  T
 166     50.9971063  0.100899E+02  0.891E+02    9.48       1.0  T
 167     40.6238651 -0.103732E+02  0.724E+02    1.20       1.0  T
 168     46.0199031  0.539604E+01  0.275E+03   99.78       1.0  T
 169     44.3024307 -0.171747E+01  0.922E+02    2.05       1.0  T
 170     35.5013460 -0.880108E+01  0.418E+02    6.17       1.0  T
 171      7.1957576 -0.283056E+02  0.181E+02    4.87       1.0  T
 172     39.1367801  0.319410E+02  0.581E+02    2.28       1.0  T
 173     48.2914214  0.915464E+01  0.634E+02   12.88       1.0  T
 174      7.8295828 -0.404618E+02  0.138E+02    0.74       1.0  T
 175     49.1966062  0.413670E+02  0.341E+03  333.57       1.0  T
 176     42.9448584 -0.625175E+01  0.905E+02    5.10       1.0  T
 177     45.7255710  0.278071E+01  0.191E+03   54.02       1.0  T
 178     44.6708224 -0.105475E+01  0.107E+03   16.60       1.0  T
 179     45.5789393  0.908117E+00  0.198E+03   43.45       1.0  T
 180     45.7187865  0.139847E+00  0.142E+03   25.67       1.0  T
 181     45.4659865 -0.252800E+00  0.205E+03   51.88       1.0  T
 182     45.9396513  0.473665E+00  0.164E+03   14.23       1.0  T
 183     45.8686404 -0.710108E-01  0.163E+03    4.88       1.0  T
 184     46.2471878  0.378547E+00  0.138E+03    4.73       1.0  T
 185     14.1288879 -0.321183E+02  0.601E+02    5.13       1.0  T
 186     47.1329817  0.330041E+02  0.148E+03    8.22       1.0  T
 187     47.9099749  0.776993E+00  0.895E+02   13.66       1.0  T
 188     47.8474971 -0.624778E-01  0.712E+02   12.52       1.0  T
 189     49.3448198  0.149732E+01  0.894E+02   36.01       1.0  T
 190     24.3105433 -0.250343E+02  0.119E+02    1.53       1.0  T
 191     45.6994736  0.213889E+02  0.245E+03   76.45       1.0  T
 192     38.3162080 -0.738327E+01  0.503E+02    4.93       1.0  T
 193     47.7296663  0.941346E+01  0.727E+02   11.86       1.0  T
 194     48.2119578  0.482292E+00  0.537E+02    4.86       1.0  T
 195     28.0892608 -0.201227E+02  0.155E+02    2.10       1.0  T
 196     39.9785821  0.118893E+02  0.670E+02    2.10       1.0  T
 197     44.2826859  0.430410E+01  0.118E+03   13.74       1.0  T
 198     45.2717503  0.989064E+00  0.174E+03   33.04       1.0  T
 199     45.8568408  0.585090E+00  0.169E+03   10.00       1.0  T
 200     46.4416107  0.584770E+00  0.161E+03   24.74       1.0  T
 201     44.7942346 -0.164738E+01  0.107E+03    4.09       1.0  T
 202     16.3788026 -0.284154E+02  0.571E+02    3.36       1.0  T
 203     50.0188802  0.336401E+02  0.135E+02    3.00       1.0  T
 204     49.0548799 -0.964000E+00  0.465E+03  365.19       1.0  T
 205     44.3264524 -0.472843E+01  0.977E+02    2.31       1.0  T
 206     46.1193499  0.179290E+01  0.296E+03   96.48       1.0  T
 207     48.9292030  0.280985E+01  0.128E+03   26.20       1.0  T
 208     48.8034362 -0.125767E+00  0.669E+02   10.20       1.0  T
 209    -24.5118523 -0.733153E+02  0.203E+01    0.45       1.0  T
 210     50.2682523  0.747801E+02  0.495E+02    9.57       1.0  T
 211     41.4646701 -0.880358E+01  0.275E+02    3.03       1.0  T
 212     45.9008851  0.443621E+01  0.219E+03   66.31       1.0  T
 213     43.8368035 -0.206408E+01  0.989E+02   14.54       1.0  T
 214     45.4348411  0.159804E+01  0.169E+03   27.78       1.0  T
 215     46.3165774  0.881736E+00  0.149E+03   33.27       1.0  T
 216     44.5263270 -0.179025E+01  0.109E+03    6.60       1.0  T
 217     12.3728226 -0.321535E+02  0.479E+02   13.17       1.0  T
 218     45.2841402  0.329113E+02  0.106E+03   11.08       1.0  T
 219      8.8505754 -0.364336E+02  0.406E+02    9.94       1.0  T
 220     39.8976979  0.310471E+02  0.708E+02    6.53       1.0  T
 221     48.9279181  0.903022E+01  0.133E+03   20.82       1.0  T
 222     42.1684307 -0.675949E+01  0.446E+02    0.28       1.0  T
 223     -8.2342378 -0.504027E+02  0.141E+02    1.10       1.0  T
 224     49.2258348  0.574601E+02  0.134E+03   64.52       1.0  T
 225     50.3965744  0.117074E+01  0.534E+02    9.43       1.0  T
 226     42.7460059 -0.765057E+01  0.781E+02    1.26       1.0  T
 227     42.9237081  0.177702E+00  0.873E+02    2.44       1.0  T
 228     44.7957626  0.187205E+01  0.105E+03   15.79       1.0  T
 229     46.2000747  0.140431E+01  0.166E+03   13.72       1.0  T
 230     44.0819852 -0.211809E+01  0.954E+02    2.11       1.0  T
 231     33.7816326 -0.103004E+02  0.603E+02   12.94       1.0  T
 232     45.4983476  0.117167E+02  0.950E+02    9.66       1.0  T
 233     40.1657199 -0.533263E+01  0.728E+02    1.21       1.0  T
 234     41.3030859  0.113737E+01  0.692E+02    1.90       1.0  T
 235     47.5973860  0.629430E+01  0.731E+02   12.99       1.0  T
 236     48.9774550  0.138007E+01  0.885E+02   32.58       1.0  T
 237     48.4787909 -0.498664E+00  0.655E+02   18.21       1.0  T
 238     48.4723651 -0.642577E-02  0.643E+02   17.51       1.0  T
 239     28.4333330 -0.200390E+02  0.202E+02    2.00       1.0  T
 240     48.3505414  0.199172E+02  0.583E+02   10.12       1.0  T
 241      5.0674542 -0.432831E+02  0.858E+01    0.95       1.0  T
 242     46.3673136  0.412999E+02  0.434E+02    4.73       1.0  T
 243     35.5988236 -0.107685E+02  0.352E+02    7.44       1.0  T
 244     29.8300288 -0.576879E+01  0.314E+02    3.19       1.0  T
 245     38.5987110  0.876868E+01  0.555E+02    3.04       1.0  T
 246     20.5400811 -0.180586E+02  0.101E+02    1.85       1.0  T
 247     48.9302125  0.283901E+02  0.121E+03   59.27       1.0  T
 248     42.2495181 -0.668069E+01  0.676E+02    3.75       1.0  T
 249     44.5185476  0.226903E+01  0.128E+03   25.14       1.0  T
 250     28.4600212 -0.160585E+02  0.604E+02   13.85       1.0  T

   *** convergence criteria cannot be satisfied within 250 iterations ***

         #    Occupation            Energy/Eh            Energy/eV
      -------------------------------------------------------------
         1        2.0000        -4984.5722608         -135637.1151
       ...           ...                  ...                  ...
        22        2.0000           -3.2889352             -89.4965
        23        2.0000           -2.9242039             -79.5716
        24        2.0000           -2.3840776             -64.8741
        25        2.0000           -2.2852311             -62.1843
        26        2.0000           -2.1536934             -58.6050
        27        2.0000           -2.1360908             -58.1260
        28        2.0000           -2.0058839             -54.5829 (HOMO)
        29                         -1.4969491             -40.7341 (LUMO)
        30                         -1.3414538             -36.5028
        31                         -1.2281797             -33.4205
        32                         -0.9405397             -25.5934
        33                         -0.8719329             -23.7265
       ...                                ...                  ...
        57                       2673.8158252           72758.2320
      -------------------------------------------------------------
                  HL-Gap            0.5089349 Eh           13.8488 eV
             Fermi-level           -1.7514165 Eh          -47.6585 eV

 SCC (total)                   0 d,  0 h,  0 min,  0.425 sec
 SCC setup                      ...        0 min,  0.001 sec (  0.125%)
 Dispersion                     ...        0 min,  0.000 sec (  0.075%)
 classical contributions        ...        0 min,  0.000 sec (  0.021%)
 integral evaluation            ...        0 min,  0.010 sec (  2.431%)
 iterations                     ...        0 min,  0.411 sec ( 96.713%)
 molecular gradient             ...        0 min,  0.002 sec (  0.544%)
 printout                       ...        0 min,  0.000 sec (  0.086%)

########################################################################
[ERROR] Program stopped due to fatal error
-3- Single point calculation terminated
-2- xtb_calculator_singlepoint: Electronic structure method terminated
-1- scf: Self consistent charge iterator did not converge
########################################################################
