25
Mol_13
C -3.190717 -1.106350 0.407830
N -1.763302 -1.287753 0.190936
C -0.925090 -0.144141 0.129831
C -1.469618 1.119232 0.276811
C -0.673779 2.266408 0.222534
C 0.677475 2.185162 0.021572
C 1.234299 0.922249 -0.127166
C 2.598287 0.873755 -0.328220
C 3.198829 -0.360437 -0.481782
C 2.419539 -1.492479 -0.429108
C 1.056353 -1.419850 -0.226874
C 0.438128 -0.202697 -0.071651
I 0.857815 0.000000 0.000000
H -3.430908 -0.912095 1.478541
H -3.746024 -2.007786 0.115351
H -3.560074 -0.302249 -0.266246
H -1.437945 -2.269769 0.092227
H -2.521970 1.301603 0.439957
H -1.113253 3.242763 0.338841
H 1.277193 3.082855 -0.017544
H 3.224245 1.758298 -0.371840
H 4.283703 -0.436251 -0.643683
H 2.906559 -2.466556 -0.552200
H 0.518070 -2.343912 -0.198120
H -0.857815 0.000000 0.000000
