      -----------------------------------------------------------      
     |                   =====================                   |     
     |                           x T B                           |     
     |                   =====================                   |     
     |                         S. Grimme                         |     
     |          Mulliken Center for Theoretical Chemistry        |     
     |                    University of Bonn                     |     
      -----------------------------------------------------------      

   * xtb version 6.7.1 (edcfbbe) compiled by 'VssAdministrator@runnervmowedg' on 2025-09-04

   xtb is free software: you can redistribute it and/or modify it under
   the terms of the GNU Lesser General Public License as published by
   the Free Software Foundation, either version 3 of the License, or
   (at your option) any later version.
   
   xtb is distributed in the hope that it will be useful,
   but WITHOUT ANY WARRANTY; without even the implied warranty of
   MERCHANTABILITY or FITNESS FOR A PARTICULAR PURPOSE.  See the
   GNU Lesser General Public License for more details.
   
   Cite this work as:
   * C. Bannwarth, E. Caldeweyher, S. Ehlert, A. Hansen, P. Pracht,
     J. Seibert, S. Spicher, S. Grimme, WIREs Comput. Mol. Sci., 2020, 11,
     e01493. DOI: 10.1002/wcms.1493
   
   for GFN2-xTB:
   * C. Bannwarth, S. Ehlert and S. Grimme., J. Chem. Theory Comput., 2019,
     15, 1652-1671. DOI: 10.1021/acs.jctc.8b01176
   for GFN1-xTB:
   * S. Grimme, C. Bannwarth, P. Shushkov, J. Chem. Theory Comput., 2017,
     13, 1989-2009. DOI: 10.1021/acs.jctc.7b00118
   for GFN0-xTB:
   * P. Pracht, E. Caldeweyher, S. Ehlert, S. Grimme, ChemRxiv, 2019, preprint.
     DOI: 10.26434/chemrxiv.8326202.v1
   for GFN-FF:
   * S. Spicher and S. Grimme, Angew. Chem. Int. Ed., 2020, 59, 15665-15673.
     DOI: 10.1002/anie.202004239
   
   for ALPB and GBSA implicit solvation:
   * S. Ehlert, M. Stahn, S. Spicher, S. Grimme, J. Chem. Theory Comput.,
     2021, 17, 4250-4261. DOI: 10.1021/acs.jctc.1c00471
   
   for ddCOSMO and CPCM-X implicit solvation:
   * M. Stahn, S. Ehlert, S. Grimme, J. Phys. Chem. A,
     2023, XX, XXXX-XXXX. DOI: 10.1021/acs.jpca.3c04382
   
   for DFT-D4:
   * E. Caldeweyher, C. Bannwarth and S. Grimme, J. Chem. Phys., 2017,
     147, 034112. DOI: 10.1063/1.4993215
   * E. Caldeweyher, S. Ehlert, A. Hansen, H. Neugebauer, S. Spicher,
     C. Bannwarth and S. Grimme, J. Chem. Phys., 2019, 150, 154122.
     DOI: 10.1063/1.5090222
   * E. Caldeweyher, J.-M. Mewes, S. Ehlert and S. Grimme, Phys. Chem. Chem. Phys.
     2020, 22, 8499-8512. DOI: 10.1039/D0CP00502A
   
   for sTDA-xTB:
   * S. Grimme and C. Bannwarth, J. Chem. Phys., 2016, 145, 054103.
     DOI: 10.1063/1.4959605
   
   in the mass-spec context:
   * V. Asgeirsson, C. Bauer and S. Grimme, Chem. Sci., 2017, 8, 4879.
     DOI: 10.1039/c7sc00601b
   * J. Koopman and S. Grimme, ACS Omega 2019, 4, 12, 15120-15133.
     DOI: 10.1021/acsomega.9b02011
   
   for metadynamics refer to:
   * S. Grimme, J. Chem. Theory Comput., 2019, 155, 2847-2862
     DOI: 10.1021/acs.jctc.9b00143
   
   for SPH calculations refer to:
   * S. Spicher and S. Grimme, J. Chem. Theory Comput., 2021, 17, 1701-1714
     DOI: 10.1021/acs.jctc.0c01306
   
   for ONIOM refer to:
   * C. Plett, A. Katbashev, S. Ehlert, S. Grimme, M. Bursch,
     Phys. Chem. Chem. Phys., 2023, 25, 17860-17868. DOI: 10.1039/D3CP02178E
   
   for DIPRO refer to:
   * J. Kohn, N. Gildemeister, S. Grimme, D. Fazzi, A. Hansen,
     J. Chem. Phys., 2023, just accepted.
   
   for PTB refer to:
   * S. Grimme, M. Mueller, A. Hansen, J. Chem. Phys., 2023, 158, 124111.
     DOI: 10.1063/5.0137838
   
   with help from (in alphabetical order)
   P. Atkinson, C. Bannwarth, F. Bohle, G. Brandenburg, E. Caldeweyher
   M. Checinski, S. Dohm, S. Ehlert, S. Ehrlich, I. Gerasimov, C. Hölzer
   A. Katbashev, J. Kohn, J. Koopman, C. Lavigne, S. Lehtola, F. März, M. Müller,
   F. Musil, H. Neugebauer, J. Pisarek, C. Plett, P. Pracht, F. Pultar,
   J. Seibert, P. Shushkov, S. Spicher, M. Stahn, M. Steiner, T. Strunk,
   J. Stückrath, T. Rose, and J. Unsleber
   
 * started run on 2026/07/30 at 19:57:28.100     
   ID    Z sym.   atoms
    1    6 C      1, 3-12
    2    7 N      2
    3   53 I      13
    4    1 H      14-25

           -------------------------------------------------
          |                Calculation Setup                |
           -------------------------------------------------

          program call               : xtb Mol_13.xyz --gfn 2 --sp --alpb acetonitrile
          coordinate file            : Mol_13.xyz
          omp threads                :                    32


           -------------------------------------------------
          |                 G F N 2 - x T B                 |
           -------------------------------------------------

        Reference                      10.1021/acs.jctc.8b01176
      * Hamiltonian:
        H0-scaling (s, p, d)           1.850000    2.230000    2.230000
        zeta-weighting                 0.500000
      * Dispersion:
        s8                             2.700000
        a1                             0.520000
        a2                             5.000000
        s9                             5.000000
      * Repulsion:
        kExp                           1.500000    1.000000
        rExp                           1.000000
      * Coulomb:
        alpha                          2.000000
        third order                    shell-resolved
        anisotropic                    true
        a3                             3.000000
        a5                             4.000000
        cn-shift                       1.200000
        cn-exp                         4.000000
        max-rad                        5.000000

      * Solvation model:               ALPB
        Solvent                        acetonitrile
        Parameter file                 internal GFN2-xTB/ALPB
        Dielectric constant                3.7500E+01
        Reference state                gsolv [1 M gas/solution]
        Free energy shift                  5.1987E-03 Eh       3.2622E+00 kcal/mol
        Temperature                        2.9815E+02 K
        Density                            7.8600E-01 kg/L
        Solvent mass                       4.1050E+01 g/mol
        Interaction kernel             P16
        Born radius scaling (c1)           1.7214E+00
        Born radii integrator          GBOBC
        Born offset                        0.0000E+00 a0       0.0000E+00 AA
        H-bond correction              true
        Ion screening                  false
        Surface tension                    1.0000E-05 Eh       1.5569E+01 dyn/cm
        Grid points                               230 per atom

          ...................................................
          :                      SETUP                      :
          :.................................................:
          :  # basis functions                  70          :
          :  # atomic orbitals                  69          :
          :  # shells                           39          :
          :  # electrons                        68          :
          :  max. iterations                   250          :
          :  Hamiltonian                  GFN2-xTB          :
          :  restarted?                      false          :
          :  GBSA solvation                   true          :
          :  PC potential                    false          :
          :  electronic temp.          300.0000000     K    :
          :  accuracy                    1.0000000          :
          :  -> integral cutoff          0.2500000E+02      :
          :  -> integral neglect         0.1000000E-07      :
          :  -> SCF convergence          0.1000000E-05 Eh   :
          :  -> wf. convergence          0.1000000E-03 e    :
          :  Broyden damping             0.4000000          :
          :  net charge                          0          :
          :  unpaired electrons                  0          :
          ...................................................

 iter      E             dE          RMSdq      gap      omega  full diag
   1    -35.4708911 -0.354709E+02  0.167E+01    2.37       0.0  T
   2    -35.5567898 -0.858987E-01  0.102E+01    2.29       1.0  T
   3    -35.2423456  0.314444E+00  0.775E+00    2.22       1.0  T
   4    -35.7494716 -0.507126E+00  0.288E+00    2.24       1.0  T
   5    -35.8022389 -0.527673E-01  0.213E+00    2.30       1.0  T
   6    -35.8394252 -0.371863E-01  0.194E+00    2.28       1.0  T
   7    -35.8848439 -0.454187E-01  0.184E+00    2.32       1.0  T
   8    -35.9323549 -0.475109E-01  0.203E+00    2.31       1.0  T
   9    -35.7875473  0.144808E+00  0.215E+00    2.20       1.0  T
  10    -35.7221025  0.654448E-01  0.294E+00    2.11       1.0  T
  11    -36.1817075 -0.459605E+00  0.314E+00    2.30       1.0  T
  12    -36.3932663 -0.211559E+00  0.374E+00    2.31       1.0  T
  13    -36.4159985 -0.227322E-01  0.380E+00    2.31       1.0  T
  14    -36.1577242  0.258274E+00  0.304E+00    2.30       1.0  T
  15    -35.9145483  0.243176E+00  0.201E+00    2.26       1.0  T
  16    -35.8343152  0.802330E-01  0.192E+00    2.22       1.0  T
  17    -35.7682375  0.660777E-01  0.237E+00    2.12       1.0  T
  18    -35.7339680  0.342696E-01  0.281E+00    2.06       1.0  T
  19    -35.9931012 -0.259133E+00  0.235E+00    2.27       1.0  T
  20    -36.9658989 -0.972798E+00  0.489E+00    2.32       1.0  T
  21    -37.4900974 -0.524198E+00  0.546E+00    2.32       1.0  T
  22    -38.5310307 -0.104093E+01  0.614E+00    2.28       1.0  T
  23    -38.6978707 -0.166840E+00  0.623E+00    2.28       1.0  T
  24    -38.6961441  0.172655E-02  0.623E+00    2.28       1.0  T
  25    -39.9181302 -0.122199E+01  0.672E+00    2.34       1.0  T
  26    -39.9808571 -0.627270E-01  0.674E+00    2.34       1.0  T
  27    -39.8739216  0.106936E+00  0.668E+00    2.33       1.0  T
  28    -39.9267886 -0.528670E-01  0.668E+00    2.34       1.0  T
  29    -39.5366657  0.390123E+00  0.665E+00    2.31       1.0  T
  30    -39.5166183  0.200473E-01  0.679E+00    2.31       1.0  T
  31    -39.1815123  0.335106E+00  0.668E+00    2.29       1.0  T
  32    -38.9047122  0.276800E+00  0.655E+00    2.29       1.0  T
  33    -38.6370861  0.267626E+00  0.649E+00    2.29       1.0  T
  34    -37.7174463  0.919640E+00  0.621E+00    2.34       1.0  T
  35    -37.7330076 -0.155613E-01  0.646E+00    2.34       1.0  T
  36    -37.7311888  0.181880E-02  0.646E+00    2.34       1.0  T
  37    -37.4811095  0.250079E+00  0.624E+00    2.35       1.0  T
  38    -37.4109983  0.701112E-01  0.616E+00    2.35       1.0  T
  39    -36.6441690  0.766829E+00  0.558E+00    2.35       1.0  T
  40    -36.2365304  0.407639E+00  0.538E+00    2.32       1.0  T
  41    -36.1111558  0.125375E+00  0.524E+00    2.31       1.0  T
  42    -36.1264079 -0.152521E-01  0.527E+00    2.31       1.0  T
  43    -36.1142487  0.121592E-01  0.536E+00    2.31       1.0  T
  44    -35.8770045  0.237244E+00  0.503E+00    2.26       1.0  T
  45    -35.8422222  0.347822E-01  0.432E+00    2.25       1.0  T
  46    -35.7950579  0.471644E-01  0.331E+00    2.20       1.0  T
  47    -35.7011239  0.939340E-01  0.348E+00    2.04       1.0  T
  48    -35.6211713  0.799526E-01  0.439E+00    1.94       1.0  T
  49    -35.6507898 -0.296185E-01  0.401E+00    1.97       1.0  T
  50    -35.6170194  0.337704E-01  0.425E+00    1.94       1.0  T
  51    -35.4476864  0.169333E+00  0.596E+00    1.81       1.0  T
  52    -35.4801142 -0.324278E-01  0.565E+00    1.83       1.0  T
  53    -35.2240859  0.256028E+00  0.779E+00    1.72       1.0  T
  54    -35.3997719 -0.175686E+00  0.642E+00    1.79       1.0  T
  55    -35.3436569  0.561150E-01  0.694E+00    1.76       1.0  T
  56    -35.4039892 -0.603323E-01  0.644E+00    1.78       1.0  T
  57    -35.4763448 -0.723556E-01  0.578E+00    1.82       1.0  T
  58    -35.5525359 -0.761910E-01  0.499E+00    1.87       1.0  T
  59    -35.5868230 -0.342871E-01  0.458E+00    1.90       1.0  T
  60    -35.5586649  0.281582E-01  0.490E+00    1.88       1.0  T
  61    -35.5379380  0.207269E-01  0.512E+00    1.86       1.0  T
  62    -35.5373168  0.621129E-03  0.513E+00    1.86       1.0  T
  63    -35.5369601  0.356736E-03  0.513E+00    1.86       1.0  T
  64    -35.5690154 -0.320553E-01  0.479E+00    1.89       1.0  T
  65    -35.6309768 -0.619614E-01  0.407E+00    1.94       1.0  T
  66    -35.7021099 -0.711330E-01  0.317E+00    2.03       1.0  T
  67    -35.7623248 -0.602149E-01  0.245E+00    2.14       1.0  T
  68    -35.8031372 -0.408124E-01  0.216E+00    2.21       1.0  T
  69    -35.8207005 -0.175633E-01  0.206E+00    2.24       1.0  T
  70    -35.8413747 -0.206742E-01  0.184E+00    2.26       1.0  T
  71    -35.8473775 -0.600281E-02  0.184E+00    2.27       1.0  T
  72    -35.8804242 -0.330466E-01  0.186E+00    2.28       1.0  T
  73    -35.9020206 -0.215964E-01  0.192E+00    2.28       1.0  T
  74    -35.9099480 -0.792743E-02  0.194E+00    2.28       1.0  T
  75    -35.9081515  0.179651E-02  0.194E+00    2.28       1.0  T
  76    -35.8997891  0.836235E-02  0.191E+00    2.28       1.0  T
  77    -35.8833542  0.164349E-01  0.185E+00    2.28       1.0  T
  78    -35.8544063  0.289480E-01  0.177E+00    2.27       1.0  T
  79    -35.8053776  0.490287E-01  0.184E+00    2.23       1.0  T
  80    -35.7695769  0.358007E-01  0.213E+00    2.17       1.0  T
  81    -35.7395942  0.299827E-01  0.249E+00    2.12       1.0  T
  82    -35.7059848  0.336094E-01  0.295E+00    2.07       1.0  T
  83    -35.6573376  0.486472E-01  0.361E+00    2.01       1.0  T
  84    -35.5701985  0.871390E-01  0.468E+00    1.93       1.0  T
  85    -35.4186565  0.151542E+00  0.622E+00    1.85       1.0  T
  86    -35.3101839  0.108473E+00  0.713E+00    1.81       1.0  T
  87    -35.2938414  0.163425E-01  0.722E+00    1.80       1.0  T
  88    -35.1872360  0.106605E+00  0.799E+00    1.77       1.0  T
  89    -35.1785130  0.872305E-02  0.802E+00    1.76       1.0  T
  90    -35.1549557  0.235573E-01  0.817E+00    1.75       1.0  T
  91    -35.1516555  0.330014E-02  0.819E+00    1.75       1.0  T
  92    -35.1512296  0.425921E-03  0.819E+00    1.75       1.0  T
  93    -35.1166815  0.345481E-01  0.844E+00    1.74       1.0  T
  94    -35.1176486 -0.967045E-03  0.844E+00    1.74       1.0  T
  95    -35.1487205 -0.310719E-01  0.823E+00    1.75       1.0  T
  96    -35.2063863 -0.576658E-01  0.783E+00    1.77       1.0  T
  97    -35.2707018 -0.643155E-01  0.736E+00    1.79       1.0  T
  98    -35.3613427 -0.906409E-01  0.665E+00    1.81       1.0  T
  99    -35.4665423 -0.105200E+00  0.572E+00    1.86       1.0  T
 100    -35.5866238 -0.120081E+00  0.448E+00    1.93       1.0  T
 101    -35.7132813 -0.126658E+00  0.287E+00    2.06       1.0  T
 102    -35.8541338 -0.140853E+00  0.177E+00    2.27       1.0  T
 103    -35.9886650 -0.134531E+00  0.224E+00    2.29       1.0  T
 104    -36.2197283 -0.231063E+00  0.310E+00    2.29       1.0  T
 105    -37.3137384 -0.109401E+01  0.514E+00    2.32       1.0  T
 106    -38.7155469 -0.140181E+01  0.616E+00    2.28       1.0  T
 107    -39.8039495 -0.108840E+01  0.639E+00    2.32       1.0  T
 108    -40.6919891 -0.888040E+00  0.623E+00    2.35       1.0  T
 109    -40.9458891 -0.253900E+00  0.605E+00    2.33       1.0  T
 110    -40.9759392 -0.300501E-01  0.604E+00    2.33       1.0  T
 111    -40.9381424  0.377969E-01  0.606E+00    2.34       1.0  T
 112    -40.7265909  0.211552E+00  0.610E+00    2.35       1.0  T
 113    -40.8348387 -0.108248E+00  0.618E+00    2.36       1.0  T
 114    -40.8356026 -0.763918E-03  0.618E+00    2.36       1.0  T
 115    -40.8045213  0.310813E-01  0.602E+00    2.34       1.0  T
 116    -40.9211407 -0.116619E+00  0.582E+00    2.31       1.0  T
 117    -40.9225853 -0.144465E-02  0.558E+00    2.28       1.0  T
 118    -41.0618863 -0.139301E+00  0.536E+00    2.24       1.0  T
 119    -41.1296976 -0.678113E-01  0.521E+00    2.21       1.0  T
 120    -41.4176913 -0.287994E+00  0.475E+00    2.12       1.0  T
 121    -41.4417581 -0.240668E-01  0.469E+00    2.11       1.0  T
 122    -41.6278584 -0.186100E+00  0.424E+00    2.01       1.0  T
 123    -41.7028436 -0.749851E-01  0.405E+00    1.96       1.0  T
 124    -41.7560229 -0.531794E-01  0.390E+00    1.93       1.0  T
 125    -41.8680625 -0.112040E+00  0.354E+00    1.85       1.0  T
 126    -41.9140767 -0.460142E-01  0.337E+00    1.82       1.0  T
 127    -41.9371841 -0.231073E-01  0.327E+00    1.79       1.0  T
 128    -42.0262600 -0.890760E-01  0.288E+00    1.72       1.0  T
 129    -42.0418741 -0.156140E-01  0.281E+00    1.70       1.0  T
 130    -42.0904699 -0.485959E-01  0.255E+00    1.61       1.0  T
 131    -42.1379536 -0.474837E-01  0.225E+00    1.54       1.0  T
 132    -42.1618340 -0.238804E-01  0.207E+00    1.50       1.0  T
 133    -42.2060478 -0.442137E-01  0.168E+00    1.39       1.0  T
 134    -42.2188060 -0.127583E-01  0.155E+00    1.36       1.0  T
 135    -42.2332518 -0.144458E-01  0.135E+00    1.32       1.0  T
 136    -42.2514096 -0.181578E-01  0.105E+00    1.26       1.0  T
 137    -42.2513674  0.421838E-04  0.105E+00    1.26       1.0  T
 138    -42.2608714 -0.950404E-02  0.890E-01    1.19       1.0  T
 139    -42.2729643 -0.120929E-01  0.490E-01    1.12       1.0  T
 140    -42.2753419 -0.237762E-02  0.400E-01    1.08       1.0  T
 141    -42.2760476 -0.705640E-03  0.403E-01    1.06       1.0  T
 142    -42.2785834 -0.253588E-02  0.165E-01    1.01       1.0  T
 143    -42.2790925 -0.509082E-03  0.133E-01    0.96       1.0  T
 144    -42.2792065 -0.114013E-03  0.664E-02    0.95       1.0  T
 145    -42.2791382  0.683775E-04  0.931E-02    0.94       1.0  T
 146    -42.2787841  0.354099E-03  0.167E-01    0.92       1.0  T
 147    -42.2788725 -0.884486E-04  0.141E-01    0.92       1.0  T
 148    -42.2789765 -0.104006E-03  0.113E-01    0.93       1.0  T
 149    -42.2791730 -0.196500E-03  0.570E-02    0.94       1.0  T
 150    -42.2792032 -0.302023E-04  0.441E-02    0.95       1.0  T
 151    -42.2792331 -0.298799E-04  0.233E-02    0.95       1.0  T
 152    -42.2792435 -0.103987E-04  0.977E-03    0.96       2.0  T
 153    -42.2792433  0.151526E-06  0.114E-02    0.96       1.7  T
 154    -42.2792433  0.664916E-07  0.114E-02    0.96       1.7  T
 155    -42.2792453 -0.205154E-05  0.331E-03    0.96       6.0  T
 156    -42.2792455 -0.162863E-06  0.132E-03    0.96      15.2  T
 157    -42.2792455  0.284880E-07  0.967E-04    0.96      20.7  T
 158    -42.2792455 -0.141522E-07  0.104E-03    0.96      19.2  T
 159    -42.2792455 -0.139172E-07  0.474E-04    0.96      42.2  T

   *** convergence criteria satisfied after 159 iterations ***

         #    Occupation            Energy/Eh            Energy/eV
      -------------------------------------------------------------
         1        2.0000           -5.3071503            -144.4149
       ...           ...                  ...                  ...
        28        2.0000           -0.4392821             -11.9535
        29        2.0000           -0.4250084             -11.5651
        30        2.0000           -0.4053379             -11.0298
        31        2.0000           -0.3717417             -10.1156
        32        2.0000           -0.3256190              -8.8605
        33        2.0000           -0.2601620              -7.0794
        34        2.0000           -0.2354013              -6.4056 (HOMO)
        35                         -0.2001375              -5.4460 (LUMO)
        36                         -0.1616648              -4.3991
        37                         -0.1283424              -3.4924
        38                         -0.0449776              -1.2239
        39                         -0.0119657              -0.3256
       ...                                ...                  ...
        69                         34.7579497             945.8120
      -------------------------------------------------------------
                  HL-Gap            0.0352638 Eh            0.9596 eV
             Fermi-level           -0.2177694 Eh           -5.9258 eV

 SCC (total)                   0 d,  0 h,  0 min,  0.232 sec
 SCC setup                      ...        0 min,  0.001 sec (  0.276%)
 Dispersion                     ...        0 min,  0.000 sec (  0.139%)
 classical contributions        ...        0 min,  0.000 sec (  0.048%)
 integral evaluation            ...        0 min,  0.009 sec (  3.818%)
 iterations                     ...        0 min,  0.219 sec ( 94.304%)
 molecular gradient             ...        0 min,  0.003 sec (  1.282%)
 printout                       ...        0 min,  0.000 sec (  0.124%)

         :::::::::::::::::::::::::::::::::::::::::::::::::::::
         ::                     SUMMARY                     ::
         :::::::::::::::::::::::::::::::::::::::::::::::::::::
         :: total energy              91.010567859206 Eh    ::
         :: total w/o Gsasa/hb        91.023600841645 Eh    ::
         :: gradient norm            437.454186339127 Eh/a0 ::
         :: HOMO-LUMO gap              0.959576835785 eV    ::
         ::.................................................::
         :: SCC energy               -42.279223505330 Eh    ::
         :: -> isotropic ES          -16.768608718000 Eh    ::
         :: -> anisotropic ES          0.013253312131 Eh    ::
         :: -> anisotropic XC          0.067304618320 Eh    ::
         :: -> dispersion             -0.034338892783 Eh    ::
         :: -> Gsolv                  -0.077278092002 Eh    ::
         ::    -> Gelec               -0.064245109562 Eh    ::
         ::    -> Gsasa               -0.016822332862 Eh    ::
         ::    -> Ghb                 -0.001409304329 Eh    ::
         ::    -> Gshift               0.005198654751 Eh    ::
         :: repulsion energy         133.289791364536 Eh    ::
         :: add. restraining           0.000000000000 Eh    ::
         :: total charge               0.000000000000 e     ::
         :::::::::::::::::::::::::::::::::::::::::::::::::::::

           -------------------------------------------------
          |                Property Printout                |
           -------------------------------------------------

    * Orbital Energies and Occupations

         #    Occupation            Energy/Eh            Energy/eV
      -------------------------------------------------------------
         1        2.0000           -5.3071503            -144.4149
       ...           ...                  ...                  ...
        22        2.0000           -0.5192319             -14.1290
        23        2.0000           -0.5141340             -13.9903
        24        2.0000           -0.5082825             -13.8311
        25        2.0000           -0.5013908             -13.6435
        26        2.0000           -0.4811485             -13.0927
        27        2.0000           -0.4710106             -12.8169
        28        2.0000           -0.4392821             -11.9535
        29        2.0000           -0.4250084             -11.5651
        30        2.0000           -0.4053379             -11.0298
        31        2.0000           -0.3717417             -10.1156
        32        2.0000           -0.3256190              -8.8605
        33        2.0000           -0.2601620              -7.0794
        34        2.0000           -0.2354013              -6.4056 (HOMO)
        35                         -0.2001375              -5.4460 (LUMO)
        36                         -0.1616648              -4.3991
        37                         -0.1283424              -3.4924
        38                         -0.0449776              -1.2239
        39                         -0.0119657              -0.3256
        40                          0.0234327               0.6376
        41                          0.0363507               0.9892
        42                          0.0542614               1.4765
        43                          0.0728738               1.9830
        44                          0.0829890               2.2582
        45                          0.0945085               2.5717
       ...                                ...                  ...
        69                         34.7579497             945.8120
      -------------------------------------------------------------
                  HL-Gap            0.0352638 Eh            0.9596 eV
             Fermi-level           -0.2177694 Eh           -5.9258 eV

     #   Z          covCN         q      C6AA      α(0)
     1   6 C        3.678    -0.091    22.481     6.792
     2   7 N        2.904    -0.306    27.873     7.841
     3   6 C        4.815     0.135    18.312     6.077
     4   6 C        4.405    -0.151    23.310     6.857
     5   6 C        3.431    -0.045    24.362     7.524
     6   6 C        3.898    -0.049    21.389     6.574
     7   6 C        4.000     2.072     4.835     3.124
     8   6 C        3.914     0.394    14.906     5.487
     9   6 C        3.798     0.043    19.855     6.345
    10   6 C        3.875     0.197    17.450     5.940
    11   6 C        3.919     1.137     8.681     4.188
    12   6 C        4.731     3.354     2.486     2.239
    13  53 I       10.058    -8.164  2667.467    89.157
    14   1 H        0.921     0.087     1.911     2.162
    15   1 H        0.923     0.115     1.655     2.012
    16   1 H        0.921     0.070     2.082     2.257
    17   1 H        0.858     0.209     1.063     1.615
    18   1 H        0.926     0.052     2.295     2.369
    19   1 H        0.926     0.035     2.518     2.481
    20   1 H        0.926     0.005     2.971     2.696
    21   1 H        0.925     0.018     2.766     2.601
    22   1 H        0.923    -0.009     3.226     2.809
    23   1 H        0.924     0.026     2.648     2.545
    24   1 H        1.090     0.111     1.676     2.022
    25   1 H        3.382     0.755     0.150     0.604

 Mol. C6AA /au·bohr⁶  :      13435.809807
 Mol. C8AA /au·bohr⁸  :     647576.628681
 Mol. α(0) /au        :        184.315405


Wiberg/Mayer (AO) data.
largest (>0.10) Wiberg bond orders for each atom

 ---------------------------------------------------------------------------
     #   Z sym  total        # sym  WBO       # sym  WBO       # sym  WBO
 ---------------------------------------------------------------------------
     1   6 C    3.931 --     2 N    0.989    15 H    0.971    14 H    0.971
                            16 H    0.971
     2   7 N    3.037 --     1 C    0.989    17 H    0.893     3 C    0.810
     3   6 C    3.809 --     2 N    0.810     8 C    0.703     4 C    0.683
                            10 C    0.322     7 C    0.272     5 C    0.256
                            11 C    0.240    25 H    0.184     6 C    0.160
                             9 C    0.116
     4   6 C    3.504 --     5 C    1.093    18 H    0.963     3 C    0.683
                             6 C    0.249    10 C    0.145    11 C    0.121
                            12 C    0.104     9 C    0.103
     5   6 C    3.896 --     4 C    1.093     6 C    1.011    19 H    0.974
                             3 C    0.256     9 C    0.143    11 C    0.130
                             7 C    0.117
     6   6 C    3.751 --     5 C    1.011    20 H    0.916    11 C    0.568
                             7 C    0.303     4 C    0.249     3 C    0.160
                             9 C    0.154    10 C    0.154     8 C    0.126
                            25 H    0.102
     7   6 C    2.147 --    11 C    0.966    12 C    0.778     6 C    0.303
                             3 C    0.272     8 C    0.245    10 C    0.176
                             5 C    0.117     9 C    0.115
     8   6 C    3.755 --    21 H    0.898     9 C    0.770     3 C    0.703
                            10 C    0.573    11 C    0.292     7 C    0.245
                            12 C    0.143    25 H    0.127     6 C    0.126
     9   6 C    3.623 --    22 H    0.977    10 C    0.833     8 C    0.770
                            11 C    0.261     6 C    0.154    12 C    0.152
                             5 C    0.143     3 C    0.116     7 C    0.115
                             4 C    0.103
    10   6 C    3.587 --    23 H    0.960     9 C    0.833     8 C    0.573
                            11 C    0.425     3 C    0.322     7 C    0.176
                             6 C    0.154     4 C    0.145
    11   6 C    3.247 --     7 C    0.966    24 H    0.612     6 C    0.568
                            10 C    0.425     8 C    0.292     9 C    0.261
                             3 C    0.240    12 C    0.203    25 H    0.132
                             5 C    0.130     4 C    0.121
    12   6 C    1.050 --     7 C    0.778    11 C    0.203     9 C    0.152
                             8 C    0.143     4 C    0.104
    13  53 I   -4.653
    14   1 H    0.991 --     1 C    0.971
    15   1 H    0.985 --     1 C    0.971
    16   1 H    0.994 --     1 C    0.971
    17   1 H    0.954 --     2 N    0.893
    18   1 H    0.993 --     4 C    0.963
    19   1 H    0.994 --     5 C    0.974
    20   1 H    0.994 --     6 C    0.916
    21   1 H    0.998 --     8 C    0.898
    22   1 H    0.997 --     9 C    0.977
    23   1 H    0.996 --    10 C    0.960
    24   1 H    0.982 --    11 C    0.612
    25   1 H    0.430 --     3 C    0.184    11 C    0.132     8 C    0.127
                             6 C    0.102
 ---------------------------------------------------------------------------

Topologies differ in total number of bonds
Writing topology from bond orders to xtbtopo.mol

molecular dipole:
                 x           y           z       tot (Debye)
 q only:       -2.175      -2.168      -1.866
   full:       -1.757      -2.322      -2.907      10.458
molecular quadrupole (traceless):
                xx          xy          yy          xz          yz          zz
 q only:       10.155       6.155      11.597      -8.610       1.036     -21.751
  q+dip:       -2.330      15.596      15.554      -6.620      -0.800     -13.223
   full:        4.922      10.398      15.163      -9.626       0.196     -20.086


           -------------------------------------------------
          | TOTAL ENERGY               91.010567859206 Eh   |
          | GRADIENT NORM             437.454186339127 Eh/α |
          | HOMO-LUMO GAP               0.959576835785 eV   |
           -------------------------------------------------

------------------------------------------------------------------------
 * finished run on 2026/07/30 at 19:57:28.353     
------------------------------------------------------------------------
 total:
 * wall-time:     0 d,  0 h,  0 min,  0.252 sec
 *  cpu-time:     0 d,  0 h,  0 min,  0.734 sec
 * ratio c/w:     2.914 speedup
 SCF:
 * wall-time:     0 d,  0 h,  0 min,  0.233 sec
 *  cpu-time:     0 d,  0 h,  0 min,  0.703 sec
 * ratio c/w:     3.022 speedup

