22
Mol_20
C 0.832753 0.898715 -1.061554
C 2.062172 1.340335 -0.567799
C 2.643901 0.642521 0.480312
C 2.065130 -0.460395 1.051781
C 0.855889 -0.899532 0.570417
C 0.252472 -0.221373 -0.475752
C -1.046398 -0.737872 -0.952517
C -2.227053 -0.141113 -0.248029
N -2.225142 -0.381348 1.174339
F 3.835207 1.099360 0.932814
I 0.857815 0.000000 0.000000
H 0.352046 1.426897 -1.884139
H 2.539726 2.218458 -1.010697
H 2.508508 -1.011342 1.867752
H 0.394507 -1.783007 1.029828
H -1.137305 -0.445782 -2.027060
H -1.070745 -1.824051 -0.871184
H -2.368668 0.939402 -0.514191
H -3.126003 -0.654301 -0.694706
H -1.921089 0.502907 1.681137
H -3.219908 -0.508481 1.519248
H -0.857815 0.000000 0.000000
