      -----------------------------------------------------------      
     |                   =====================                   |     
     |                           x T B                           |     
     |                   =====================                   |     
     |                         S. Grimme                         |     
     |          Mulliken Center for Theoretical Chemistry        |     
     |                    University of Bonn                     |     
      -----------------------------------------------------------      

   * xtb version 6.7.1 (edcfbbe) compiled by 'VssAdministrator@runnervmowedg' on 2025-09-04

   xtb is free software: you can redistribute it and/or modify it under
   the terms of the GNU Lesser General Public License as published by
   the Free Software Foundation, either version 3 of the License, or
   (at your option) any later version.
   
   xtb is distributed in the hope that it will be useful,
   but WITHOUT ANY WARRANTY; without even the implied warranty of
   MERCHANTABILITY or FITNESS FOR A PARTICULAR PURPOSE.  See the
   GNU Lesser General Public License for more details.
   
   Cite this work as:
   * C. Bannwarth, E. Caldeweyher, S. Ehlert, A. Hansen, P. Pracht,
     J. Seibert, S. Spicher, S. Grimme, WIREs Comput. Mol. Sci., 2020, 11,
     e01493. DOI: 10.1002/wcms.1493
   
   for GFN2-xTB:
   * C. Bannwarth, S. Ehlert and S. Grimme., J. Chem. Theory Comput., 2019,
     15, 1652-1671. DOI: 10.1021/acs.jctc.8b01176
   for GFN1-xTB:
   * S. Grimme, C. Bannwarth, P. Shushkov, J. Chem. Theory Comput., 2017,
     13, 1989-2009. DOI: 10.1021/acs.jctc.7b00118
   for GFN0-xTB:
   * P. Pracht, E. Caldeweyher, S. Ehlert, S. Grimme, ChemRxiv, 2019, preprint.
     DOI: 10.26434/chemrxiv.8326202.v1
   for GFN-FF:
   * S. Spicher and S. Grimme, Angew. Chem. Int. Ed., 2020, 59, 15665-15673.
     DOI: 10.1002/anie.202004239
   
   for ALPB and GBSA implicit solvation:
   * S. Ehlert, M. Stahn, S. Spicher, S. Grimme, J. Chem. Theory Comput.,
     2021, 17, 4250-4261. DOI: 10.1021/acs.jctc.1c00471
   
   for ddCOSMO and CPCM-X implicit solvation:
   * M. Stahn, S. Ehlert, S. Grimme, J. Phys. Chem. A,
     2023, XX, XXXX-XXXX. DOI: 10.1021/acs.jpca.3c04382
   
   for DFT-D4:
   * E. Caldeweyher, C. Bannwarth and S. Grimme, J. Chem. Phys., 2017,
     147, 034112. DOI: 10.1063/1.4993215
   * E. Caldeweyher, S. Ehlert, A. Hansen, H. Neugebauer, S. Spicher,
     C. Bannwarth and S. Grimme, J. Chem. Phys., 2019, 150, 154122.
     DOI: 10.1063/1.5090222
   * E. Caldeweyher, J.-M. Mewes, S. Ehlert and S. Grimme, Phys. Chem. Chem. Phys.
     2020, 22, 8499-8512. DOI: 10.1039/D0CP00502A
   
   for sTDA-xTB:
   * S. Grimme and C. Bannwarth, J. Chem. Phys., 2016, 145, 054103.
     DOI: 10.1063/1.4959605
   
   in the mass-spec context:
   * V. Asgeirsson, C. Bauer and S. Grimme, Chem. Sci., 2017, 8, 4879.
     DOI: 10.1039/c7sc00601b
   * J. Koopman and S. Grimme, ACS Omega 2019, 4, 12, 15120-15133.
     DOI: 10.1021/acsomega.9b02011
   
   for metadynamics refer to:
   * S. Grimme, J. Chem. Theory Comput., 2019, 155, 2847-2862
     DOI: 10.1021/acs.jctc.9b00143
   
   for SPH calculations refer to:
   * S. Spicher and S. Grimme, J. Chem. Theory Comput., 2021, 17, 1701-1714
     DOI: 10.1021/acs.jctc.0c01306
   
   for ONIOM refer to:
   * C. Plett, A. Katbashev, S. Ehlert, S. Grimme, M. Bursch,
     Phys. Chem. Chem. Phys., 2023, 25, 17860-17868. DOI: 10.1039/D3CP02178E
   
   for DIPRO refer to:
   * J. Kohn, N. Gildemeister, S. Grimme, D. Fazzi, A. Hansen,
     J. Chem. Phys., 2023, just accepted.
   
   for PTB refer to:
   * S. Grimme, M. Mueller, A. Hansen, J. Chem. Phys., 2023, 158, 124111.
     DOI: 10.1063/5.0137838
   
   with help from (in alphabetical order)
   P. Atkinson, C. Bannwarth, F. Bohle, G. Brandenburg, E. Caldeweyher
   M. Checinski, S. Dohm, S. Ehlert, S. Ehrlich, I. Gerasimov, C. Hölzer
   A. Katbashev, J. Kohn, J. Koopman, C. Lavigne, S. Lehtola, F. März, M. Müller,
   F. Musil, H. Neugebauer, J. Pisarek, C. Plett, P. Pracht, F. Pultar,
   J. Seibert, P. Shushkov, S. Spicher, M. Stahn, M. Steiner, T. Strunk,
   J. Stückrath, T. Rose, and J. Unsleber
   
 * started run on 2026/07/30 at 19:57:36.018     
   ID    Z sym.   atoms
    1    6 C      1-8
    2    7 N      9
    3    9 F      10
    4   53 I      11
    5    1 H      12-22

           -------------------------------------------------
          |                Calculation Setup                |
           -------------------------------------------------

          program call               : xtb Mol_20.xyz --gfn 2 --sp --alpb acetonitrile
          coordinate file            : Mol_20.xyz
          omp threads                :                    32


           -------------------------------------------------
          |                 G F N 2 - x T B                 |
           -------------------------------------------------

        Reference                      10.1021/acs.jctc.8b01176
      * Hamiltonian:
        H0-scaling (s, p, d)           1.850000    2.230000    2.230000
        zeta-weighting                 0.500000
      * Dispersion:
        s8                             2.700000
        a1                             0.520000
        a2                             5.000000
        s9                             5.000000
      * Repulsion:
        kExp                           1.500000    1.000000
        rExp                           1.000000
      * Coulomb:
        alpha                          2.000000
        third order                    shell-resolved
        anisotropic                    true
        a3                             3.000000
        a5                             4.000000
        cn-shift                       1.200000
        cn-exp                         4.000000
        max-rad                        5.000000

      * Solvation model:               ALPB
        Solvent                        acetonitrile
        Parameter file                 internal GFN2-xTB/ALPB
        Dielectric constant                3.7500E+01
        Reference state                gsolv [1 M gas/solution]
        Free energy shift                  5.1987E-03 Eh       3.2622E+00 kcal/mol
        Temperature                        2.9815E+02 K
        Density                            7.8600E-01 kg/L
        Solvent mass                       4.1050E+01 g/mol
        Interaction kernel             P16
        Born radius scaling (c1)           1.7214E+00
        Born radii integrator          GBOBC
        Born offset                        0.0000E+00 a0       0.0000E+00 AA
        H-bond correction              true
        Ion screening                  false
        Surface tension                    1.0000E-05 Eh       1.5569E+01 dyn/cm
        Grid points                               230 per atom

          ...................................................
          :                      SETUP                      :
          :.................................................:
          :  # basis functions                  61          :
          :  # atomic orbitals                  60          :
          :  # shells                           34          :
          :  # electrons                        62          :
          :  max. iterations                   250          :
          :  Hamiltonian                  GFN2-xTB          :
          :  restarted?                      false          :
          :  GBSA solvation                   true          :
          :  PC potential                    false          :
          :  electronic temp.          300.0000000     K    :
          :  accuracy                    1.0000000          :
          :  -> integral cutoff          0.2500000E+02      :
          :  -> integral neglect         0.1000000E-07      :
          :  -> SCF convergence          0.1000000E-05 Eh   :
          :  -> wf. convergence          0.1000000E-03 e    :
          :  Broyden damping             0.4000000          :
          :  net charge                          0          :
          :  unpaired electrons                  0          :
          ...................................................

 iter      E             dE          RMSdq      gap      omega  full diag
   1    -32.7243931 -0.327244E+02  0.153E+01    1.52       0.0  T
   2    -32.7177115  0.668164E-02  0.879E+00    1.23       1.0  T
   3    -32.3662374  0.351474E+00  0.685E+00    2.70       1.0  T
   4    -32.9544461 -0.588209E+00  0.319E+00    1.12       1.0  T
   5    -33.0425550 -0.881089E-01  0.210E+00    0.92       1.0  T
   6    -33.0585944 -0.160394E-01  0.153E+00    0.86       1.0  T
   7    -33.0596795 -0.108508E-02  0.942E-01    0.91       1.0  T
   8    -33.0687393 -0.905980E-02  0.689E-01    0.87       1.0  T
   9    -33.0721504 -0.341111E-02  0.385E-01    0.90       1.0  T
  10    -33.0745154 -0.236499E-02  0.359E-01    0.92       1.0  T
  11    -33.0762132 -0.169782E-02  0.328E-01    0.93       1.0  T
  12    -33.0780709 -0.185773E-02  0.326E-01    0.93       1.0  T
  13    -33.0741613  0.390966E-02  0.334E-01    0.91       1.0  T
  14    -33.0638689  0.102924E-01  0.790E-01    0.88       1.0  T
  15    -33.0794271 -0.155583E-01  0.361E-01    0.93       1.0  T
  16    -33.0836742 -0.424701E-02  0.436E-01    0.95       1.0  T
  17    -33.0844001 -0.725935E-03  0.452E-01    0.95       1.0  T
  18    -33.0812133  0.318675E-02  0.380E-01    0.94       1.0  T
  19    -33.0737515  0.746183E-02  0.352E-01    0.90       1.0  T
  20    -33.0712743  0.247719E-02  0.425E-01    0.89       1.0  T
  21    -33.0817203 -0.104460E-01  0.392E-01    0.94       1.0  T
  22    -33.0893260 -0.760566E-02  0.574E-01    0.96       1.0  T
  23    -33.1455867 -0.562607E-01  0.150E+00    0.95       1.0  T
  24    -33.2270899 -0.815032E-01  0.229E+00    0.88       1.0  T
  25    -33.2769761 -0.498862E-01  0.265E+00    0.85       1.0  T
  26    -33.3687331 -0.917570E-01  0.318E+00    0.83       1.0  T
  27    -33.3356808  0.330523E-01  0.300E+00    0.84       1.0  T
  28    -33.3590922 -0.234114E-01  0.313E+00    0.83       1.0  T
  29    -33.3563067  0.278543E-02  0.312E+00    0.83       1.0  T
  30    -33.3561681  0.138665E-03  0.312E+00    0.83       1.0  T
  31    -33.3580802 -0.191217E-02  0.313E+00    0.83       1.0  T
  32    -33.3363384  0.217418E-01  0.302E+00    0.82       1.0  T
  33    -33.2300674  0.106271E+00  0.232E+00    0.84       1.0  T
  34    -33.1642632  0.658041E-01  0.168E+00    0.85       1.0  T
  35    -33.1855810 -0.213178E-01  0.193E+00    0.83       1.0  T
  36    -33.1641367  0.214443E-01  0.171E+00    0.84       1.0  T
  37    -33.1708556 -0.671885E-02  0.181E+00    0.83       1.0  T
  38    -33.1525076  0.183479E-01  0.165E+00    0.84       1.0  T
  39    -33.1408546  0.116531E-01  0.156E+00    0.85       1.0  T
  40    -33.1128955  0.279591E-01  0.121E+00    0.90       1.0  T
  41    -33.1066967  0.619873E-02  0.112E+00    0.92       1.0  T
  42    -33.0847721  0.219246E-01  0.716E-01    0.92       1.0  T
  43    -33.0780561  0.671602E-02  0.580E-01    0.91       1.0  T
  44    -33.0734143  0.464174E-02  0.535E-01    0.89       1.0  T
  45    -33.0569065  0.165078E-01  0.105E+00    0.85       1.0  T
  46    -33.0097262  0.471803E-01  0.271E+00    0.84       1.0  T
  47    -32.7317475  0.277979E+00  0.734E+00    0.90       1.0  T
  48    -30.9518876  0.177986E+01  0.187E+01    1.45       1.0  T
  49    -30.6281128  0.323775E+00  0.202E+01    1.60       1.0  T
  50    -32.1587923 -0.153068E+01  0.122E+01    1.02       1.0  T
  51    -27.0723754  0.508642E+01  0.386E+01    1.23       1.0  T
  52    -28.9845391 -0.191216E+01  0.289E+01    2.07       1.0  T
  53    -32.8150537 -0.383051E+01  0.673E+00    0.84       1.0  T
  54    -32.8667007 -0.516471E-01  0.598E+00    0.89       1.0  T
  55    -32.4961536  0.370547E+00  0.966E+00    0.94       1.0  T
  56    -31.6554395  0.840714E+00  0.151E+01    1.12       1.0  T
  57    -32.1851323 -0.529693E+00  0.119E+01    0.98       1.0  T
  58    -30.7374555  0.144768E+01  0.196E+01    1.51       1.0  T
  59    -32.8302629 -0.209281E+01  0.618E+00    0.85       1.0  T
  60    -30.8954428  0.193482E+01  0.189E+01    1.47       1.0  T
  61    -29.7439458  0.115150E+01  0.247E+01    1.93       1.0  T
  62    -30.9495960 -0.120565E+01  0.186E+01    1.42       1.0  T
  63    -32.9773467 -0.202775E+01  0.359E+00    0.81       1.0  T
  64    -32.8302501  0.147097E+00  0.614E+00    0.85       1.0  T
  65    -33.0076892 -0.177439E+00  0.286E+00    0.81       1.0  T
  66    -33.0644479 -0.567587E-01  0.136E+00    0.85       1.0  T
  67    -33.0648943 -0.446362E-03  0.142E+00    0.85       1.0  T
  68    -32.8716094  0.193285E+00  0.533E+00    0.82       1.0  T
  69    -33.0681456 -0.196536E+00  0.169E+00    0.85       1.0  T
  70    -32.6313563  0.436789E+00  0.807E+00    0.88       1.0  T
  71    -33.0507820 -0.419426E+00  0.199E+00    0.81       1.0  T
  72    -31.6404500  0.141033E+01  0.148E+01    1.09       1.0  T
  73    -33.0983132 -0.145786E+01  0.167E+00    0.85       1.0  T
  74    -31.9692592  0.112905E+01  0.127E+01    0.93       1.0  T
  75    -33.0897296 -0.112047E+01  0.168E+00    0.84       1.0  T
  76    -29.9527906  0.313694E+01  0.233E+01    1.85       1.0  T
  77    -33.0737502 -0.312096E+01  0.118E+00    0.87       1.0  T
  78    -29.7070766  0.336667E+01  0.246E+01    1.94       1.0  T
  79    -32.9166997 -0.320962E+01  0.457E+00    0.79       1.0  T
  80    -30.7625086  0.215419E+01  0.192E+01    1.50       1.0  T
  81    -33.0519257 -0.228942E+01  0.194E+00    0.81       1.0  T
  82    -27.7578665  0.529406E+01  0.359E+01    1.51       1.0  T
  83    -24.3441551  0.341371E+01  0.436E+01    1.17       1.0  T
  84    -29.4087234 -0.506457E+01  0.264E+01    2.03       1.0  T
  85    -29.6247161 -0.215993E+00  0.251E+01    1.96       1.0  T
  86    -33.0379162 -0.341320E+01  0.195E+00    0.79       1.0  T
  87    -30.1868797  0.285104E+01  0.220E+01    1.76       1.0  T
  88    -33.0517450 -0.286487E+01  0.208E+00    0.80       1.0  T
  89    -28.9020865  0.414966E+01  0.293E+01    2.08       1.0  T
  90    -33.0027934 -0.410071E+01  0.288E+00    0.77       1.0  T
  91    -31.6334500  0.136934E+01  0.146E+01    1.05       1.0  T
  92    -33.0014781 -0.136803E+01  0.308E+00    0.75       1.0  T
  93    -28.4785559  0.452292E+01  0.319E+01    1.93       1.0  T
  94    -31.9461336 -0.346758E+01  0.130E+01    0.97       1.0  T
  95    -31.6764377  0.269696E+00  0.142E+01    0.95       1.0  T
  96    -33.0245031 -0.134807E+01  0.253E+00    0.76       1.0  T
  97    -25.8299800  0.719452E+01  0.413E+01    0.98       1.0  T
  98    -32.9725996 -0.714262E+01  0.358E+00    0.76       1.0  T
  99    -32.3497982  0.622801E+00  0.102E+01    0.88       1.0  T
 100    -32.0692110  0.280587E+00  0.120E+01    0.81       1.0  T
 101    -31.9478417  0.121369E+00  0.127E+01    0.83       1.0  T
 102    -30.7679895  0.117985E+01  0.189E+01    1.43       1.0  T
 103    -31.4404157 -0.672426E+00  0.156E+01    1.09       1.0  T
 104    -32.1704683 -0.730053E+00  0.114E+01    0.83       1.0  T
 105    -31.1179534  0.105251E+01  0.172E+01    1.22       1.0  T
 106    -31.3826064 -0.264653E+00  0.159E+01    1.10       1.0  T
 107    -31.1850579  0.197549E+00  0.169E+01    1.20       1.0  T
 108    -31.2306941 -0.456362E-01  0.167E+01    1.17       1.0  T
 109    -31.3997390 -0.169045E+00  0.158E+01    1.08       1.0  T
 110    -31.3720518  0.276873E-01  0.160E+01    1.09       1.0  T
 111    -31.0744023  0.297649E+00  0.175E+01    1.25       1.0  T
 112    -30.9648808  0.109522E+00  0.180E+01    1.31       1.0  T
 113    -31.0124758 -0.475950E-01  0.178E+01    1.28       1.0  T
 114    -31.1972179 -0.184742E+00  0.168E+01    1.17       1.0  T
 115    -31.0775077  0.119710E+00  0.174E+01    1.24       1.0  T
 116    -30.9085705  0.168937E+00  0.183E+01    1.33       1.0  T
 117    -30.8947987  0.137717E-01  0.184E+01    1.34       1.0  T
 118    -30.8259394  0.688593E-01  0.187E+01    1.38       1.0  T
 119    -30.7942932  0.316463E-01  0.189E+01    1.40       1.0  T
 120    -30.8064547 -0.121616E-01  0.188E+01    1.39       1.0  T
 121    -30.9264750 -0.120020E+00  0.182E+01    1.32       1.0  T
 122    -30.9760985 -0.496235E-01  0.179E+01    1.30       1.0  T
 123    -30.8973636  0.787349E-01  0.183E+01    1.34       1.0  T
 124    -30.8668275  0.305361E-01  0.185E+01    1.36       1.0  T
 125    -30.9157828 -0.489553E-01  0.183E+01    1.33       1.0  T
 126    -31.0538367 -0.138054E+00  0.176E+01    1.25       1.0  T
 127    -31.1049251 -0.510885E-01  0.173E+01    1.22       1.0  T
 128    -31.0720390  0.328861E-01  0.175E+01    1.24       1.0  T
 129    -31.1114096 -0.393706E-01  0.172E+01    1.22       1.0  T
 130    -31.1941947 -0.827851E-01  0.168E+01    1.18       1.0  T
 131    -31.0649739  0.129221E+00  0.174E+01    1.26       1.0  T
 132    -30.9939274  0.710466E-01  0.178E+01    1.30       1.0  T
 133    -30.9716721  0.222553E-01  0.179E+01    1.32       1.0  T
 134    -30.9833137 -0.116416E-01  0.179E+01    1.31       1.0  T
 135    -31.0092425 -0.259288E-01  0.177E+01    1.29       1.0  T
 136    -31.0240426 -0.148001E-01  0.176E+01    1.28       1.0  T
 137    -31.0233064  0.736218E-03  0.177E+01    1.28       1.0  T
 138    -31.1885423 -0.165236E+00  0.169E+01    1.21       1.0  T
 139    -31.3951224 -0.206580E+00  0.158E+01    1.12       1.0  T
 140    -31.5467827 -0.151660E+00  0.151E+01    1.05       1.0  T
 141    -31.6704719 -0.123689E+00  0.144E+01    1.00       1.0  T
 142    -31.7172069 -0.467350E-01  0.142E+01    0.99       1.0  T
 143    -31.7701230 -0.529161E-01  0.139E+01    0.98       1.0  T
 144    -31.6771796  0.929433E-01  0.144E+01    1.02       1.0  T
 145    -31.6910030 -0.138234E-01  0.143E+01    1.02       1.0  T
 146    -31.6117411  0.792620E-01  0.148E+01    1.05       1.0  T
 147    -31.6193005 -0.755945E-02  0.147E+01    1.05       1.0  T
 148    -31.5500978  0.692027E-01  0.151E+01    1.08       1.0  T
 149    -31.5504801 -0.382289E-03  0.151E+01    1.08       1.0  T
 150    -31.4874915  0.629887E-01  0.154E+01    1.11       1.0  T
 151    -31.4879850 -0.493538E-03  0.154E+01    1.11       1.0  T
 152    -31.5441918 -0.562068E-01  0.151E+01    1.08       1.0  T
 153    -31.6283492 -0.841574E-01  0.147E+01    1.04       1.0  T
 154    -31.7371217 -0.108773E+00  0.141E+01    0.99       1.0  T
 155    -31.8647849 -0.127663E+00  0.134E+01    0.94       1.0  T
 156    -31.9847025 -0.119918E+00  0.128E+01    0.90       1.0  T
 157    -32.0731492 -0.884467E-01  0.122E+01    0.88       1.0  T
 158    -32.1041898 -0.310406E-01  0.121E+01    0.86       1.0  T
 159    -32.0873860  0.168038E-01  0.122E+01    0.83       1.0  T
 160    -32.3059070 -0.218521E+00  0.108E+01    0.77       1.0  T
 161    -32.7775763 -0.471669E+00  0.691E+00    0.75       1.0  T
 162    -32.3902671  0.387309E+00  0.103E+01    0.82       1.0  T
 163    -31.9808913  0.409376E+00  0.127E+01    0.77       1.0  T
 164    -32.8448380 -0.863947E+00  0.606E+00    0.75       1.0  T
 165    -32.7128590  0.131979E+00  0.752E+00    0.78       1.0  T
 166    -32.8725962 -0.159737E+00  0.559E+00    0.76       1.0  T
 167    -32.7716858  0.100910E+00  0.677E+00    0.77       1.0  T
 168    -33.0111244 -0.239439E+00  0.304E+00    0.78       1.0  T
 169    -32.2747139  0.736410E+00  0.109E+01    0.87       1.0  T
 170    -33.0590724 -0.784358E+00  0.256E+00    0.87       1.0  T
 171    -32.6537604  0.405312E+00  0.816E+00    0.87       1.0  T
 172    -33.3434175 -0.689657E+00  0.321E+00    0.59       1.0  T
 173    -37.3575148 -0.401410E+01  0.105E+01    0.29       1.0  T
 174    -37.7332102 -0.375695E+00  0.107E+01    0.35       1.0  T
 175    -38.0551493 -0.321939E+00  0.110E+01    0.43       1.0  T
 176    -38.0619047 -0.675538E-02  0.110E+01    0.43       1.0  T
 177    -38.1175172 -0.556125E-01  0.111E+01    0.45       1.0  T
 178    -38.1594394 -0.419222E-01  0.111E+01    0.47       1.0  T
 179    -38.1595565 -0.117153E-03  0.111E+01    0.47       1.0  T
 180    -37.8781247  0.281432E+00  0.108E+01    0.38       1.0  T
 181    -37.8791583 -0.103354E-02  0.109E+01    0.39       1.0  T
 182    -37.4341014  0.445057E+00  0.104E+01    0.24       1.0  T
 183    -37.4181466  0.159548E-01  0.104E+01    0.23       1.0  T
 184    -35.6298848  0.178826E+01  0.824E+00    0.37       1.0  T
 185    -36.4140631 -0.784178E+00  0.928E+00    0.24       1.0  T
 186    -36.7879509 -0.373888E+00  0.938E+00    0.15       1.0  T
 187    -37.9736655 -0.118571E+01  0.102E+01    0.25       1.0  T
 188    -36.1600063  0.181366E+01  0.827E+00    0.30       1.0  T
 189    -38.0912078 -0.193120E+01  0.102E+01    0.29       1.0  T
 190    -34.7979553  0.329325E+01  0.728E+00    0.54       1.0  T
 191    -37.5836188 -0.278566E+01  0.903E+00    0.11       1.0  T
 192    -35.5986167  0.198500E+01  0.717E+00    0.31       1.0  T
 193    -37.6940477 -0.209543E+01  0.966E+00    0.26       1.0  T
 194    -33.3662920  0.432776E+01  0.308E+00    0.70       1.0  T
 195    -34.5840393 -0.121775E+01  0.556E+00    0.49       1.0  T
 196    -37.9021384 -0.331810E+01  0.969E+00    0.36       1.0  T
 197    -37.7463417  0.155797E+00  0.895E+00    0.23       1.0  T
 198    -38.1222528 -0.375911E+00  0.945E+00    0.33       1.0  T
 199    -38.2934422 -0.171189E+00  0.938E+00    0.32       1.0  T
 200    -38.3250110 -0.315688E-01  0.932E+00    0.30       1.0  T
 201    -38.2242209  0.100790E+00  0.912E+00    0.26       1.0  T
 202    -38.2425801 -0.183593E-01  0.914E+00    0.26       1.0  T
 203    -37.7346673  0.507913E+00  0.826E+00    0.14       1.0  T
 204    -37.1261114  0.608556E+00  0.742E+00    0.13       1.0  T
 205    -36.8635405  0.262571E+00  0.721E+00    0.15       1.0  T
 206    -37.6437103 -0.780170E+00  0.863E+00    0.17       1.0  T
 207    -37.2596336  0.384077E+00  0.788E+00    0.16       1.0  T
 208    -37.8196976 -0.560064E+00  0.875E+00    0.25       1.0  T
 209    -37.6391125  0.180585E+00  0.833E+00    0.22       1.0  T
 210    -38.0153307 -0.376218E+00  0.877E+00    0.30       1.0  T
 211    -38.1649023 -0.149572E+00  0.882E+00    0.33       1.0  T
 212    -38.5255141 -0.360612E+00  0.907E+00    0.45       1.0  T
 213    -38.6015029 -0.759888E-01  0.910E+00    0.49       1.0  T
 214    -38.5175373  0.839656E-01  0.888E+00    0.47       1.0  T
 215    -37.9242842  0.593253E+00  0.803E+00    0.30       1.0  T
 216    -37.9536397 -0.293555E-01  0.796E+00    0.32       1.0  T
 217    -37.9243342  0.293055E-01  0.767E+00    0.32       1.0  T
 218    -38.3422691 -0.417935E+00  0.789E+00    0.40       1.0  T
 219    -38.1770053  0.165264E+00  0.766E+00    0.33       1.0  T
 220    -37.8676445  0.309361E+00  0.723E+00    0.26       1.0  T
 221    -36.6596445  0.120800E+01  0.603E+00    0.30       1.0  T
 222    -33.5321928  0.312745E+01  0.440E+00    0.80       1.0  T
 223    -33.0548706  0.477322E+00  0.260E+00    1.05       1.0  T
 224    -34.1819372 -0.112707E+01  0.458E+00    0.77       1.0  T
 225    -35.9517109 -0.176977E+01  0.580E+00    0.59       1.0  T
 226    -38.0836189 -0.213191E+01  0.700E+00    0.30       1.0  T
 227    -38.4367583 -0.353139E+00  0.779E+00    0.30       1.0  T
 228    -37.5649499  0.871808E+00  0.675E+00    0.25       1.0  T
 229    -36.1987625  0.136619E+01  0.586E+00    0.43       1.0  T
 230    -34.9568973  0.124187E+01  0.548E+00    0.63       1.0  T
 231    -34.4180737  0.538824E+00  0.520E+00    0.72       1.0  T
 232    -34.5620012 -0.143927E+00  0.519E+00    0.72       1.0  T
 233    -35.0670212 -0.505020E+00  0.549E+00    0.68       1.0  T
 234    -35.2753625 -0.208341E+00  0.564E+00    0.66       1.0  T
 235    -35.5075683 -0.232206E+00  0.575E+00    0.62       1.0  T
 236    -35.7982989 -0.290731E+00  0.584E+00    0.56       1.0  T
 237    -36.0615744 -0.263276E+00  0.589E+00    0.51       1.0  T
 238    -36.4977155 -0.436141E+00  0.597E+00    0.44       1.0  T
 239    -36.9707398 -0.473024E+00  0.609E+00    0.37       1.0  T
 240    -37.3779194 -0.407180E+00  0.629E+00    0.33       1.0  T
 241    -37.5619751 -0.184056E+00  0.640E+00    0.32       1.0  T
 242    -37.5393156  0.226595E-01  0.637E+00    0.32       1.0  T
 243    -37.2172104  0.322105E+00  0.613E+00    0.35       1.0  T
 244    -37.1400281  0.771823E-01  0.608E+00    0.36       1.0  T
 245    -37.1756549 -0.356267E-01  0.608E+00    0.35       1.0  T
 246    -37.1962796 -0.206247E-01  0.606E+00    0.35       1.0  T
 247    -37.3031554 -0.106876E+00  0.608E+00    0.34       1.0  T
 248    -37.3436214 -0.404660E-01  0.609E+00    0.34       1.0  T
 249    -37.3257804  0.178410E-01  0.609E+00    0.34       1.0  T
 250    -37.3093310  0.164494E-01  0.610E+00    0.34       1.0  T

   *** convergence criteria cannot be satisfied within 250 iterations ***

         #    Occupation            Energy/Eh            Energy/eV
      -------------------------------------------------------------
         1        2.0000           -2.0153033             -54.8392
       ...           ...                  ...                  ...
        25        2.0000           -0.4613926             -12.5551
        26        2.0000           -0.4545512             -12.3690
        27        2.0000           -0.4024029             -10.9499
        28        2.0000           -0.3977874             -10.8243
        29        2.0000           -0.3066261              -8.3437
        30        2.0000           -0.2512588              -6.8371
        31        1.9974           -0.1255185              -3.4155 (HOMO)
        32        0.0026           -0.1129107              -3.0725 (LUMO)
        33                         -0.0761274              -2.0715
        34                         -0.0199608              -0.5432
        35                         -0.0025878              -0.0704
        36                          0.0133185               0.3624
       ...                                ...                  ...
        60                          6.9409791             188.8737
      -------------------------------------------------------------
                  HL-Gap            0.0126078 Eh            0.3431 eV
             Fermi-level           -0.1192146 Eh           -3.2440 eV

 SCC (total)                   0 d,  0 h,  0 min,  0.453 sec
 SCC setup                      ...        0 min,  0.001 sec (  0.150%)
 Dispersion                     ...        0 min,  0.000 sec (  0.098%)
 classical contributions        ...        0 min,  0.000 sec (  0.035%)
 integral evaluation            ...        0 min,  0.012 sec (  2.673%)
 iterations                     ...        0 min,  0.436 sec ( 96.256%)
 molecular gradient             ...        0 min,  0.003 sec (  0.700%)
 printout                       ...        0 min,  0.000 sec (  0.082%)

########################################################################
[ERROR] Program stopped due to fatal error
-3- Single point calculation terminated
-2- xtb_calculator_singlepoint: Electronic structure method terminated
-1- scf: Self consistent charge iterator did not converge
########################################################################
