      -----------------------------------------------------------      
     |                   =====================                   |     
     |                           x T B                           |     
     |                   =====================                   |     
     |                         S. Grimme                         |     
     |          Mulliken Center for Theoretical Chemistry        |     
     |                    University of Bonn                     |     
      -----------------------------------------------------------      

   * xtb version 6.7.1 (edcfbbe) compiled by 'VssAdministrator@runnervmowedg' on 2025-09-04

   xtb is free software: you can redistribute it and/or modify it under
   the terms of the GNU Lesser General Public License as published by
   the Free Software Foundation, either version 3 of the License, or
   (at your option) any later version.
   
   xtb is distributed in the hope that it will be useful,
   but WITHOUT ANY WARRANTY; without even the implied warranty of
   MERCHANTABILITY or FITNESS FOR A PARTICULAR PURPOSE.  See the
   GNU Lesser General Public License for more details.
   
   Cite this work as:
   * C. Bannwarth, E. Caldeweyher, S. Ehlert, A. Hansen, P. Pracht,
     J. Seibert, S. Spicher, S. Grimme, WIREs Comput. Mol. Sci., 2020, 11,
     e01493. DOI: 10.1002/wcms.1493
   
   for GFN2-xTB:
   * C. Bannwarth, S. Ehlert and S. Grimme., J. Chem. Theory Comput., 2019,
     15, 1652-1671. DOI: 10.1021/acs.jctc.8b01176
   for GFN1-xTB:
   * S. Grimme, C. Bannwarth, P. Shushkov, J. Chem. Theory Comput., 2017,
     13, 1989-2009. DOI: 10.1021/acs.jctc.7b00118
   for GFN0-xTB:
   * P. Pracht, E. Caldeweyher, S. Ehlert, S. Grimme, ChemRxiv, 2019, preprint.
     DOI: 10.26434/chemrxiv.8326202.v1
   for GFN-FF:
   * S. Spicher and S. Grimme, Angew. Chem. Int. Ed., 2020, 59, 15665-15673.
     DOI: 10.1002/anie.202004239
   
   for ALPB and GBSA implicit solvation:
   * S. Ehlert, M. Stahn, S. Spicher, S. Grimme, J. Chem. Theory Comput.,
     2021, 17, 4250-4261. DOI: 10.1021/acs.jctc.1c00471
   
   for ddCOSMO and CPCM-X implicit solvation:
   * M. Stahn, S. Ehlert, S. Grimme, J. Phys. Chem. A,
     2023, XX, XXXX-XXXX. DOI: 10.1021/acs.jpca.3c04382
   
   for DFT-D4:
   * E. Caldeweyher, C. Bannwarth and S. Grimme, J. Chem. Phys., 2017,
     147, 034112. DOI: 10.1063/1.4993215
   * E. Caldeweyher, S. Ehlert, A. Hansen, H. Neugebauer, S. Spicher,
     C. Bannwarth and S. Grimme, J. Chem. Phys., 2019, 150, 154122.
     DOI: 10.1063/1.5090222
   * E. Caldeweyher, J.-M. Mewes, S. Ehlert and S. Grimme, Phys. Chem. Chem. Phys.
     2020, 22, 8499-8512. DOI: 10.1039/D0CP00502A
   
   for sTDA-xTB:
   * S. Grimme and C. Bannwarth, J. Chem. Phys., 2016, 145, 054103.
     DOI: 10.1063/1.4959605
   
   in the mass-spec context:
   * V. Asgeirsson, C. Bauer and S. Grimme, Chem. Sci., 2017, 8, 4879.
     DOI: 10.1039/c7sc00601b
   * J. Koopman and S. Grimme, ACS Omega 2019, 4, 12, 15120-15133.
     DOI: 10.1021/acsomega.9b02011
   
   for metadynamics refer to:
   * S. Grimme, J. Chem. Theory Comput., 2019, 155, 2847-2862
     DOI: 10.1021/acs.jctc.9b00143
   
   for SPH calculations refer to:
   * S. Spicher and S. Grimme, J. Chem. Theory Comput., 2021, 17, 1701-1714
     DOI: 10.1021/acs.jctc.0c01306
   
   for ONIOM refer to:
   * C. Plett, A. Katbashev, S. Ehlert, S. Grimme, M. Bursch,
     Phys. Chem. Chem. Phys., 2023, 25, 17860-17868. DOI: 10.1039/D3CP02178E
   
   for DIPRO refer to:
   * J. Kohn, N. Gildemeister, S. Grimme, D. Fazzi, A. Hansen,
     J. Chem. Phys., 2023, just accepted.
   
   for PTB refer to:
   * S. Grimme, M. Mueller, A. Hansen, J. Chem. Phys., 2023, 158, 124111.
     DOI: 10.1063/5.0137838
   
   with help from (in alphabetical order)
   P. Atkinson, C. Bannwarth, F. Bohle, G. Brandenburg, E. Caldeweyher
   M. Checinski, S. Dohm, S. Ehlert, S. Ehrlich, I. Gerasimov, C. Hölzer
   A. Katbashev, J. Kohn, J. Koopman, C. Lavigne, S. Lehtola, F. März, M. Müller,
   F. Musil, H. Neugebauer, J. Pisarek, C. Plett, P. Pracht, F. Pultar,
   J. Seibert, P. Shushkov, S. Spicher, M. Stahn, M. Steiner, T. Strunk,
   J. Stückrath, T. Rose, and J. Unsleber
   
 * started run on 2026/07/30 at 19:57:41.397     
   ID    Z sym.   atoms
    1    6 C      1-4
    2    8 O      5, 6
    3    1 H      7-12

           -------------------------------------------------
          |                Calculation Setup                |
           -------------------------------------------------

          program call               : xtb Mol_6.xyz --gfn 2 --sp --alpb acetonitrile
          coordinate file            : Mol_6.xyz
          omp threads                :                    32


           -------------------------------------------------
          |                 G F N 2 - x T B                 |
           -------------------------------------------------

        Reference                      10.1021/acs.jctc.8b01176
      * Hamiltonian:
        H0-scaling (s, p, d)           1.850000    2.230000    2.230000
        zeta-weighting                 0.500000
      * Dispersion:
        s8                             2.700000
        a1                             0.520000
        a2                             5.000000
        s9                             5.000000
      * Repulsion:
        kExp                           1.500000    1.000000
        rExp                           1.000000
      * Coulomb:
        alpha                          2.000000
        third order                    shell-resolved
        anisotropic                    true
        a3                             3.000000
        a5                             4.000000
        cn-shift                       1.200000
        cn-exp                         4.000000
        max-rad                        5.000000

      * Solvation model:               ALPB
        Solvent                        acetonitrile
        Parameter file                 internal GFN2-xTB/ALPB
        Dielectric constant                3.7500E+01
        Reference state                gsolv [1 M gas/solution]
        Free energy shift                  5.1987E-03 Eh       3.2622E+00 kcal/mol
        Temperature                        2.9815E+02 K
        Density                            7.8600E-01 kg/L
        Solvent mass                       4.1050E+01 g/mol
        Interaction kernel             P16
        Born radius scaling (c1)           1.7214E+00
        Born radii integrator          GBOBC
        Born offset                        0.0000E+00 a0       0.0000E+00 AA
        H-bond correction              true
        Ion screening                  false
        Surface tension                    1.0000E-05 Eh       1.5569E+01 dyn/cm
        Grid points                               230 per atom

          ...................................................
          :                      SETUP                      :
          :.................................................:
          :  # basis functions                  30          :
          :  # atomic orbitals                  30          :
          :  # shells                           18          :
          :  # electrons                        34          :
          :  max. iterations                   250          :
          :  Hamiltonian                  GFN2-xTB          :
          :  restarted?                      false          :
          :  GBSA solvation                   true          :
          :  PC potential                    false          :
          :  electronic temp.          300.0000000     K    :
          :  accuracy                    1.0000000          :
          :  -> integral cutoff          0.2500000E+02      :
          :  -> integral neglect         0.1000000E-07      :
          :  -> SCF convergence          0.1000000E-05 Eh   :
          :  -> wf. convergence          0.1000000E-03 e    :
          :  Broyden damping             0.4000000          :
          :  net charge                          0          :
          :  unpaired electrons                  0          :
          ...................................................

 iter      E             dE          RMSdq      gap      omega  full diag
   1    -19.9367045 -0.199367E+02  0.507E+00    4.02       0.0  T
   2    -19.9678847 -0.311802E-01  0.264E+00    3.72       1.0  T
   3    -19.9679215 -0.368367E-04  0.129E+00    3.92       1.0  T
   4    -19.9703390 -0.241750E-02  0.234E-01    3.77       1.0  T
   5    -19.9706673 -0.328339E-03  0.142E-01    3.77       1.0  T
   6    -19.9707772 -0.109823E-03  0.551E-02    3.78       1.0  T
   7    -19.9707791 -0.195594E-05  0.709E-03    3.78       4.1  T
   8    -19.9707793 -0.228130E-06  0.357E-03    3.78       8.1  T
   9    -19.9707794 -0.108412E-07  0.644E-04    3.78      44.8  T
  10    -19.9707794 -0.434706E-09  0.235E-04    3.78     122.6  T

   *** convergence criteria satisfied after 10 iterations ***

         #    Occupation            Energy/Eh            Energy/eV
      -------------------------------------------------------------
         1        2.0000           -0.7428771             -20.2147
       ...           ...                  ...                  ...
        11        2.0000           -0.4917986             -13.3825
        12        2.0000           -0.4894079             -13.3175
        13        2.0000           -0.4739963             -12.8981
        14        2.0000           -0.4683654             -12.7449
        15        2.0000           -0.4535316             -12.3412
        16        2.0000           -0.4216014             -11.4724
        17        2.0000           -0.4186776             -11.3928 (HOMO)
        18                         -0.2798502              -7.6151 (LUMO)
        19                         -0.1694014              -4.6096
        20                          0.0619525               1.6858
        21                          0.1029597               2.8017
        22                          0.1138810               3.0989
       ...                                ...                  ...
        30                          0.6459064              17.5760
      -------------------------------------------------------------
                  HL-Gap            0.1388275 Eh            3.7777 eV
             Fermi-level           -0.3492639 Eh           -9.5040 eV

 SCC (total)                   0 d,  0 h,  0 min,  0.020 sec
 SCC setup                      ...        0 min,  0.001 sec (  3.558%)
 Dispersion                     ...        0 min,  0.000 sec (  1.592%)
 classical contributions        ...        0 min,  0.000 sec (  0.678%)
 integral evaluation            ...        0 min,  0.001 sec (  2.547%)
 iterations                     ...        0 min,  0.016 sec ( 82.076%)
 molecular gradient             ...        0 min,  0.002 sec (  8.037%)
 printout                       ...        0 min,  0.000 sec (  1.388%)

         :::::::::::::::::::::::::::::::::::::::::::::::::::::
         ::                     SUMMARY                     ::
         :::::::::::::::::::::::::::::::::::::::::::::::::::::
         :: total energy             -19.746405516438 Eh    ::
         :: total w/o Gsasa/hb       -19.736284845284 Eh    ::
         :: gradient norm              0.261493804738 Eh/a0 ::
         :: HOMO-LUMO gap              3.777687683145 eV    ::
         ::.................................................::
         :: SCC energy               -19.970770802391 Eh    ::
         :: -> isotropic ES            0.056394069047 Eh    ::
         :: -> anisotropic ES          0.001512129887 Eh    ::
         :: -> anisotropic XC          0.005242526441 Eh    ::
         :: -> dispersion             -0.006485068085 Eh    ::
         :: -> Gsolv                  -0.014449227458 Eh    ::
         ::    -> Gelec               -0.004328556304 Eh    ::
         ::    -> Gsasa               -0.011637369938 Eh    ::
         ::    -> Ghb                 -0.003681955967 Eh    ::
         ::    -> Gshift               0.005198654751 Eh    ::
         :: repulsion energy           0.224365285953 Eh    ::
         :: add. restraining           0.000000000000 Eh    ::
         :: total charge               0.000000000000 e     ::
         :::::::::::::::::::::::::::::::::::::::::::::::::::::

           -------------------------------------------------
          |                Property Printout                |
           -------------------------------------------------

    * Orbital Energies and Occupations

         #    Occupation            Energy/Eh            Energy/eV
      -------------------------------------------------------------
         1        2.0000           -0.7428771             -20.2147
       ...           ...                  ...                  ...
         5        2.0000           -0.6015753             -16.3697
         6        2.0000           -0.5891470             -16.0315
         7        2.0000           -0.5779239             -15.7261
         8        2.0000           -0.5744695             -15.6321
         9        2.0000           -0.5379618             -14.6387
        10        2.0000           -0.5078101             -13.8182
        11        2.0000           -0.4917986             -13.3825
        12        2.0000           -0.4894079             -13.3175
        13        2.0000           -0.4739963             -12.8981
        14        2.0000           -0.4683654             -12.7449
        15        2.0000           -0.4535316             -12.3412
        16        2.0000           -0.4216014             -11.4724
        17        2.0000           -0.4186776             -11.3928 (HOMO)
        18                         -0.2798502              -7.6151 (LUMO)
        19                         -0.1694014              -4.6096
        20                          0.0619525               1.6858
        21                          0.1029597               2.8017
        22                          0.1138810               3.0989
        23                          0.1653619               4.4997
        24                          0.1777455               4.8367
        25                          0.2090276               5.6879
        26                          0.2170341               5.9058
        27                          0.2571945               6.9986
        28                          0.3644447               9.9170
       ...                                ...                  ...
        30                          0.6459064              17.5760
      -------------------------------------------------------------
                  HL-Gap            0.1388275 Eh            3.7777 eV
             Fermi-level           -0.3492639 Eh           -9.5040 eV

     #   Z          covCN         q      C6AA      α(0)
     1   6 C        3.756    -0.115    22.765     6.803
     2   6 C        2.937    -0.005    28.156     8.703
     3   6 C        2.841    -0.079    29.971     8.972
     4   6 C        2.697     0.350    21.062     7.511
     5   8 O        0.856    -0.455    22.805     6.403
     6   8 O        1.658    -0.399    20.823     6.160
     7   1 H        0.924     0.059     2.216     2.328
     8   1 H        0.924     0.064     2.158     2.297
     9   1 H        0.924     0.064     2.158     2.297
    10   1 H        0.925     0.074     2.040     2.234
    11   1 H        0.925     0.071     2.069     2.250
    12   1 H        0.804     0.373     0.538     1.153

 Mol. C6AA /au·bohr⁶  :       1397.938423
 Mol. C8AA /au·bohr⁸  :      31558.137519
 Mol. α(0) /au        :         57.110011


Wiberg/Mayer (AO) data.
largest (>0.10) Wiberg bond orders for each atom

 ---------------------------------------------------------------------------
     #   Z sym  total        # sym  WBO       # sym  WBO       # sym  WBO
 ---------------------------------------------------------------------------
     1   6 C    3.993 --     2 C    1.030     7 H    0.984     8 H    0.967
                             9 H    0.967
     2   6 C    3.986 --     3 C    1.860     1 C    1.030     4 C    1.015
     3   6 C    3.982 --     2 C    1.860    11 H    0.973    10 H    0.972
     4   6 C    3.913 --     5 O    1.703     6 O    1.138     2 C    1.015
     5   8 O    1.997 --     4 C    1.703     6 O    0.169
     6   8 O    2.185 --     4 C    1.138    12 H    0.838     5 O    0.169
     7   1 H    0.997 --     1 C    0.984
     8   1 H    0.996 --     1 C    0.967
     9   1 H    0.996 --     1 C    0.967
    10   1 H    0.994 --     3 C    0.972
    11   1 H    0.995 --     3 C    0.973
    12   1 H    0.861 --     6 O    0.838
 ---------------------------------------------------------------------------

Topologies differ in total number of bonds
Writing topology from bond orders to xtbtopo.mol

molecular dipole:
                 x           y           z       tot (Debye)
 q only:       -0.165       0.857      -0.197
   full:       -0.066       0.827      -0.187       2.161
molecular quadrupole (traceless):
                xx          xy          yy          xz          yz          zz
 q only:        6.568       0.529      -5.184       0.162       0.912      -1.384
  q+dip:        7.593      -0.786      -5.753       0.510       0.886      -1.840
   full:        7.228      -0.547      -6.681       0.392       1.418      -0.546


           -------------------------------------------------
          | TOTAL ENERGY              -19.746405516438 Eh   |
          | GRADIENT NORM               0.261493804738 Eh/α |
          | HOMO-LUMO GAP               3.777687683145 eV   |
           -------------------------------------------------

------------------------------------------------------------------------
 * finished run on 2026/07/30 at 19:57:41.442     
------------------------------------------------------------------------
 total:
 * wall-time:     0 d,  0 h,  0 min,  0.044 sec
 *  cpu-time:     0 d,  0 h,  0 min,  0.016 sec
 * ratio c/w:     0.357 speedup
 SCF:
 * wall-time:     0 d,  0 h,  0 min,  0.020 sec
 *  cpu-time:     0 d,  0 h,  0 min,  0.000 sec
 * ratio c/w:     0.000 speedup

