19
Mol_14
C 1.677926 -0.798761 0.296836
C 2.908361 -0.233098 0.041045
O 2.761000 1.067079 -0.110484
C 1.485694 1.388265 0.033787
C 0.751883 0.246147 0.293508
C -0.704446 0.092806 0.527513
C -1.484911 -0.150678 -0.749904
N -2.899430 -0.283419 -0.377086
Cl 0.682834 0.000000 0.000000
H 1.413714 -1.837651 0.473931
H 3.851865 -0.792720 -0.022810
H 1.067539 2.392794 -0.038654
H -0.878430 -0.709753 1.271075
H -1.069498 1.084348 0.904232
H -1.421203 0.720610 -1.426700
H -1.206183 -1.092269 -1.262452
H -3.049358 0.184268 0.540722
H -3.204522 -1.277967 -0.394560
H -0.682834 0.000000 0.000000
