      -----------------------------------------------------------      
     |                   =====================                   |     
     |                           x T B                           |     
     |                   =====================                   |     
     |                         S. Grimme                         |     
     |          Mulliken Center for Theoretical Chemistry        |     
     |                    University of Bonn                     |     
      -----------------------------------------------------------      

   * xtb version 6.7.1 (edcfbbe) compiled by 'VssAdministrator@runnervmowedg' on 2025-09-04

   xtb is free software: you can redistribute it and/or modify it under
   the terms of the GNU Lesser General Public License as published by
   the Free Software Foundation, either version 3 of the License, or
   (at your option) any later version.
   
   xtb is distributed in the hope that it will be useful,
   but WITHOUT ANY WARRANTY; without even the implied warranty of
   MERCHANTABILITY or FITNESS FOR A PARTICULAR PURPOSE.  See the
   GNU Lesser General Public License for more details.
   
   Cite this work as:
   * C. Bannwarth, E. Caldeweyher, S. Ehlert, A. Hansen, P. Pracht,
     J. Seibert, S. Spicher, S. Grimme, WIREs Comput. Mol. Sci., 2020, 11,
     e01493. DOI: 10.1002/wcms.1493
   
   for GFN2-xTB:
   * C. Bannwarth, S. Ehlert and S. Grimme., J. Chem. Theory Comput., 2019,
     15, 1652-1671. DOI: 10.1021/acs.jctc.8b01176
   for GFN1-xTB:
   * S. Grimme, C. Bannwarth, P. Shushkov, J. Chem. Theory Comput., 2017,
     13, 1989-2009. DOI: 10.1021/acs.jctc.7b00118
   for GFN0-xTB:
   * P. Pracht, E. Caldeweyher, S. Ehlert, S. Grimme, ChemRxiv, 2019, preprint.
     DOI: 10.26434/chemrxiv.8326202.v1
   for GFN-FF:
   * S. Spicher and S. Grimme, Angew. Chem. Int. Ed., 2020, 59, 15665-15673.
     DOI: 10.1002/anie.202004239
   
   for ALPB and GBSA implicit solvation:
   * S. Ehlert, M. Stahn, S. Spicher, S. Grimme, J. Chem. Theory Comput.,
     2021, 17, 4250-4261. DOI: 10.1021/acs.jctc.1c00471
   
   for ddCOSMO and CPCM-X implicit solvation:
   * M. Stahn, S. Ehlert, S. Grimme, J. Phys. Chem. A,
     2023, XX, XXXX-XXXX. DOI: 10.1021/acs.jpca.3c04382
   
   for DFT-D4:
   * E. Caldeweyher, C. Bannwarth and S. Grimme, J. Chem. Phys., 2017,
     147, 034112. DOI: 10.1063/1.4993215
   * E. Caldeweyher, S. Ehlert, A. Hansen, H. Neugebauer, S. Spicher,
     C. Bannwarth and S. Grimme, J. Chem. Phys., 2019, 150, 154122.
     DOI: 10.1063/1.5090222
   * E. Caldeweyher, J.-M. Mewes, S. Ehlert and S. Grimme, Phys. Chem. Chem. Phys.
     2020, 22, 8499-8512. DOI: 10.1039/D0CP00502A
   
   for sTDA-xTB:
   * S. Grimme and C. Bannwarth, J. Chem. Phys., 2016, 145, 054103.
     DOI: 10.1063/1.4959605
   
   in the mass-spec context:
   * V. Asgeirsson, C. Bauer and S. Grimme, Chem. Sci., 2017, 8, 4879.
     DOI: 10.1039/c7sc00601b
   * J. Koopman and S. Grimme, ACS Omega 2019, 4, 12, 15120-15133.
     DOI: 10.1021/acsomega.9b02011
   
   for metadynamics refer to:
   * S. Grimme, J. Chem. Theory Comput., 2019, 155, 2847-2862
     DOI: 10.1021/acs.jctc.9b00143
   
   for SPH calculations refer to:
   * S. Spicher and S. Grimme, J. Chem. Theory Comput., 2021, 17, 1701-1714
     DOI: 10.1021/acs.jctc.0c01306
   
   for ONIOM refer to:
   * C. Plett, A. Katbashev, S. Ehlert, S. Grimme, M. Bursch,
     Phys. Chem. Chem. Phys., 2023, 25, 17860-17868. DOI: 10.1039/D3CP02178E
   
   for DIPRO refer to:
   * J. Kohn, N. Gildemeister, S. Grimme, D. Fazzi, A. Hansen,
     J. Chem. Phys., 2023, just accepted.
   
   for PTB refer to:
   * S. Grimme, M. Mueller, A. Hansen, J. Chem. Phys., 2023, 158, 124111.
     DOI: 10.1063/5.0137838
   
   with help from (in alphabetical order)
   P. Atkinson, C. Bannwarth, F. Bohle, G. Brandenburg, E. Caldeweyher
   M. Checinski, S. Dohm, S. Ehlert, S. Ehrlich, I. Gerasimov, C. Hölzer
   A. Katbashev, J. Kohn, J. Koopman, C. Lavigne, S. Lehtola, F. März, M. Müller,
   F. Musil, H. Neugebauer, J. Pisarek, C. Plett, P. Pracht, F. Pultar,
   J. Seibert, P. Shushkov, S. Spicher, M. Stahn, M. Steiner, T. Strunk,
   J. Stückrath, T. Rose, and J. Unsleber
   
 * started run on 2026/07/30 at 19:57:29.222     
   ID    Z sym.   atoms
    1    6 C      1, 2, 4-7
    2    8 O      3
    3    7 N      8
    4   17 Cl     9
    5    1 H      10-19

           -------------------------------------------------
          |                Calculation Setup                |
           -------------------------------------------------

          program call               : xtb Mol_14.xyz --gfn 2 --sp --alpb acetonitrile
          coordinate file            : Mol_14.xyz
          omp threads                :                    32


           -------------------------------------------------
          |                 G F N 2 - x T B                 |
           -------------------------------------------------

        Reference                      10.1021/acs.jctc.8b01176
      * Hamiltonian:
        H0-scaling (s, p, d)           1.850000    2.230000    2.230000
        zeta-weighting                 0.500000
      * Dispersion:
        s8                             2.700000
        a1                             0.520000
        a2                             5.000000
        s9                             5.000000
      * Repulsion:
        kExp                           1.500000    1.000000
        rExp                           1.000000
      * Coulomb:
        alpha                          2.000000
        third order                    shell-resolved
        anisotropic                    true
        a3                             3.000000
        a5                             4.000000
        cn-shift                       1.200000
        cn-exp                         4.000000
        max-rad                        5.000000

      * Solvation model:               ALPB
        Solvent                        acetonitrile
        Parameter file                 internal GFN2-xTB/ALPB
        Dielectric constant                3.7500E+01
        Reference state                gsolv [1 M gas/solution]
        Free energy shift                  5.1987E-03 Eh       3.2622E+00 kcal/mol
        Temperature                        2.9815E+02 K
        Density                            7.8600E-01 kg/L
        Solvent mass                       4.1050E+01 g/mol
        Interaction kernel             P16
        Born radius scaling (c1)           1.7214E+00
        Born radii integrator          GBOBC
        Born offset                        0.0000E+00 a0       0.0000E+00 AA
        H-bond correction              true
        Ion screening                  false
        Surface tension                    1.0000E-05 Eh       1.5569E+01 dyn/cm
        Grid points                               230 per atom

          ...................................................
          :                      SETUP                      :
          :.................................................:
          :  # basis functions                  52          :
          :  # atomic orbitals                  51          :
          :  # shells                           29          :
          :  # electrons                        52          :
          :  max. iterations                   250          :
          :  Hamiltonian                  GFN2-xTB          :
          :  restarted?                      false          :
          :  GBSA solvation                   true          :
          :  PC potential                    false          :
          :  electronic temp.          300.0000000     K    :
          :  accuracy                    1.0000000          :
          :  -> integral cutoff          0.2500000E+02      :
          :  -> integral neglect         0.1000000E-07      :
          :  -> SCF convergence          0.1000000E-05 Eh   :
          :  -> wf. convergence          0.1000000E-03 e    :
          :  Broyden damping             0.4000000          :
          :  net charge                          0          :
          :  unpaired electrons                  0          :
          ...................................................

 iter      E             dE          RMSdq      gap      omega  full diag
   1    -27.9829335 -0.279829E+02  0.103E+01    0.93       0.0  T
   2    -28.8059424 -0.823009E+00  0.103E+01    1.33       1.0  T
   3    -29.1578817 -0.351939E+00  0.751E+00    0.53       1.0  T
   4    -32.8957217 -0.373784E+01  0.129E+01    1.42       1.0  T
   5    -30.5243624  0.237136E+01  0.116E+01    1.12       1.0  T
   6    -29.2159974  0.130836E+01  0.107E+01    0.98       1.0  T
   7    -30.7261906 -0.151019E+01  0.288E+01    2.08       1.0  T
   8    -32.9942172 -0.226803E+01  0.133E+01    0.65       1.0  T
   9    -37.7900778 -0.479586E+01  0.108E+01    2.03       1.0  T
  10    -37.7911945 -0.111665E-02  0.107E+01    2.15       1.0  T
  11    -38.1748056 -0.383611E+00  0.102E+01    1.95       1.0  T
  12    -38.1292014  0.456041E-01  0.102E+01    1.92       1.0  T
  13    -38.3731605 -0.243959E+00  0.958E+00    1.08       1.0  T
  14    -39.3311693 -0.958009E+00  0.823E+00    1.38       1.0  T
  15    -39.3743000 -0.431307E-01  0.810E+00    1.36       1.0  T
  16    -39.3079926  0.663074E-01  0.831E+00    1.43       1.0  T
  17    -39.3748771 -0.668844E-01  0.804E+00    1.38       1.0  T
  18    -40.2692763 -0.894399E+00  0.407E+00    0.46       1.0  T
  19    -40.2755967 -0.632048E-02  0.410E+00    0.72       1.0  T
  20    -40.1688558  0.106741E+00  0.507E+00    0.95       1.0  T
  21    -40.3765785 -0.207723E+00  0.359E+00    0.47       1.0  T
  22    -40.4221716 -0.455931E-01  0.309E+00    0.25       1.0  T
  23    -40.5406887 -0.118517E+00  0.210E+00    0.12       1.0  T
  24    -40.4098605  0.130828E+00  0.333E+00    0.21       1.0  T
  25    -40.3526893  0.571711E-01  0.367E+00    1.04       1.0  T
  26    -40.3791406 -0.264513E-01  0.346E+00    0.91       1.0  T
  27    -40.3597915  0.193492E-01  0.369E+00    0.97       1.0  T
  28    -40.3586115  0.117995E-02  0.368E+00    0.98       1.0  T
  29    -40.3807891 -0.221776E-01  0.351E+00    0.92       1.0  T
  30    -40.4064799 -0.256908E-01  0.330E+00    0.73       1.0  T
  31    -40.4565200 -0.500401E-01  0.288E+00    0.39       1.0  T
  32    -40.4484859  0.803413E-02  0.291E+00    0.41       1.0  T
  33    -40.4770682 -0.285823E-01  0.269E+00    0.29       1.0  T
  34    -40.6000069 -0.122939E+00  0.141E+00    0.14       1.0  T
  35    -40.6422409 -0.422340E-01  0.350E-01    0.11       1.0  T
  36    -40.5892954  0.529455E-01  0.154E+00    0.14       1.0  T
  37    -40.5498668  0.394287E-01  0.200E+00    0.17       1.0  T
  38    -40.5490369  0.829892E-03  0.199E+00    0.16       1.0  T
  39    -40.6431091 -0.940722E-01  0.110E-01    0.10       1.0  T
  40    -40.5985838  0.445253E-01  0.134E+00    0.12       1.0  T
  41    -40.6210617 -0.224779E-01  0.967E-01    0.11       1.0  T
  42    -40.6320269 -0.109652E-01  0.674E-01    0.10       1.0  T
  43    -40.6029488  0.290780E-01  0.129E+00    0.12       1.0  T
  44    -40.6431526 -0.402038E-01  0.697E-02    0.10       1.0  T
  45    -40.6092430  0.339096E-01  0.118E+00    0.12       1.0  T
  46    -40.6394960 -0.302531E-01  0.386E-01    0.10       1.0  T
  47    -40.6306386  0.885747E-02  0.712E-01    0.10       1.0  T
  48    -40.6416488 -0.110103E-01  0.251E-01    0.10       1.0  T
  49    -40.6425259 -0.877019E-03  0.169E-01    0.10       1.0  T
  50    -40.6430081 -0.482207E-03  0.105E-01    0.10       1.0  T
  51    -40.6429845  0.235302E-04  0.109E-01    0.10       1.0  T
  52    -40.6426171  0.367430E-03  0.163E-01    0.10       1.0  T
  53    -40.6431755 -0.558360E-03  0.585E-02    0.10       1.0  T
  54    -40.6432066 -0.311045E-04  0.454E-02    0.10       1.0  T
  55    -40.6432040  0.261862E-05  0.457E-02    0.10       1.0  T
  56    -40.6432249 -0.209564E-04  0.349E-02    0.10       1.0  T
  57    -40.6432409 -0.159400E-04  0.240E-02    0.10       1.0  T
  58    -40.6432512 -0.103897E-04  0.124E-02    0.10       1.8  T
  59    -40.6432549 -0.364267E-05  0.258E-03    0.10       8.9  T
  60    -40.6432550 -0.718638E-07  0.197E-03    0.10      11.6  T
  61    -40.6432550 -0.570936E-07  0.124E-03    0.10      18.6  T
  62    -40.6432551 -0.365575E-07  0.111E-04    0.10     206.8  T
  63    -40.6432551  0.113064E-08  0.239E-04    0.10      96.1  T

   *** convergence criteria satisfied after 63 iterations ***

         #    Occupation            Energy/Eh            Energy/eV
      -------------------------------------------------------------
         1        2.0000           -5.9093469            -160.8015
       ...           ...                  ...                  ...
        20        2.0000           -0.5922316             -16.1154
        21        2.0000           -0.5836529             -15.8820
        22        2.0000           -0.5618658             -15.2891
        23        2.0000           -0.5568266             -15.1520
        24        2.0000           -0.5283815             -14.3780
        25        2.0000           -0.5130544             -13.9609
        26        1.7354           -0.4930186             -13.4157 (HOMO)
        27        0.2646           -0.4894454             -13.3185 (LUMO)
        28                         -0.3910263             -10.6404
        29                         -0.2500812              -6.8051
        30                         -0.1296378              -3.5276
        31                         -0.0804363              -2.1888
       ...                                ...                  ...
        51                         42.1525721            1147.0299
      -------------------------------------------------------------
                  HL-Gap            0.0035732 Eh            0.0972 eV
             Fermi-level           -0.4912320 Eh          -13.3671 eV

 SCC (total)                   0 d,  0 h,  0 min,  0.071 sec
 SCC setup                      ...        0 min,  0.001 sec (  0.803%)
 Dispersion                     ...        0 min,  0.000 sec (  0.357%)
 classical contributions        ...        0 min,  0.000 sec (  0.130%)
 integral evaluation            ...        0 min,  0.006 sec (  8.221%)
 iterations                     ...        0 min,  0.062 sec ( 87.732%)
 molecular gradient             ...        0 min,  0.002 sec (  2.365%)
 printout                       ...        0 min,  0.000 sec (  0.370%)

         :::::::::::::::::::::::::::::::::::::::::::::::::::::
         ::                     SUMMARY                     ::
         :::::::::::::::::::::::::::::::::::::::::::::::::::::
         :: total energy               1.915902969482 Eh    ::
         :: total w/o Gsasa/hb         1.931593862439 Eh    ::
         :: gradient norm            181.072259656072 Eh/a0 ::
         :: HOMO-LUMO gap              0.097232324096 eV    ::
         ::.................................................::
         :: SCC energy               -40.643257406202 Eh    ::
         :: -> isotropic ES          -19.291019192820 Eh    ::
         :: -> anisotropic ES         -0.004989154803 Eh    ::
         :: -> anisotropic XC          0.002667429057 Eh    ::
         :: -> dispersion             -0.031768783571 Eh    ::
         :: -> Gsolv                  -0.105728269513 Eh    ::
         ::    -> Gelec               -0.090037376556 Eh    ::
         ::    -> Gsasa               -0.013808750559 Eh    ::
         ::    -> Ghb                 -0.007080797150 Eh    ::
         ::    -> Gshift               0.005198654751 Eh    ::
         :: repulsion energy          42.559160375684 Eh    ::
         :: add. restraining           0.000000000000 Eh    ::
         :: total charge               0.000000000211 e     ::
         :::::::::::::::::::::::::::::::::::::::::::::::::::::

           -------------------------------------------------
          |                Property Printout                |
           -------------------------------------------------

    * Orbital Energies and Occupations

         #    Occupation            Energy/Eh            Energy/eV
      -------------------------------------------------------------
         1        2.0000           -5.9093469            -160.8015
       ...           ...                  ...                  ...
        14        2.0000           -0.6774945             -18.4356
        15        2.0000           -0.6693660             -18.2144
        16        2.0000           -0.6552971             -17.8315
        17        2.0000           -0.6514294             -17.7263
        18        2.0000           -0.6380762             -17.3629
        19        2.0000           -0.6165529             -16.7773
        20        2.0000           -0.5922316             -16.1154
        21        2.0000           -0.5836529             -15.8820
        22        2.0000           -0.5618658             -15.2891
        23        2.0000           -0.5568266             -15.1520
        24        2.0000           -0.5283815             -14.3780
        25        2.0000           -0.5130544             -13.9609
        26        1.7354           -0.4930186             -13.4157 (HOMO)
        27        0.2646           -0.4894454             -13.3185 (LUMO)
        28                         -0.3910263             -10.6404
        29                         -0.2500812              -6.8051
        30                         -0.1296378              -3.5276
        31                         -0.0804363              -2.1888
        32                         -0.0589549              -1.6042
        33                         -0.0267016              -0.7266
        34                          0.0007261               0.0198
        35                          0.0156551               0.4260
        36                          0.0603192               1.6414
        37                          0.0646061               1.7580
       ...                                ...                  ...
        51                         42.1525721            1147.0299
      -------------------------------------------------------------
                  HL-Gap            0.0035732 Eh            0.0972 eV
             Fermi-level           -0.4912320 Eh          -13.3671 eV

     #   Z          covCN         q      C6AA      α(0)
     1   6 C        3.927     1.479     6.928     3.741
     2   6 C        3.650     0.201    17.709     6.045
     3   8 O        1.920     0.069    13.599     4.980
     4   6 C        3.981     0.881    10.368     4.575
     5   6 C        4.276     3.768     2.062     2.040
     6   6 C        5.627     0.806    10.933     4.696
     7   6 C        5.134     0.074    19.259     6.232
     8   7 N        2.628    -0.213    25.660     7.523
     9  17 Cl       5.693    -9.436  5292.368   111.300
    10   1 H        0.959     0.135     1.492     1.909
    11   1 H        0.923     0.158     1.338     1.809
    12   1 H        0.924     0.128     1.551     1.948
    13   1 H        0.930     0.095     1.833     2.117
    14   1 H        0.920    -0.031     3.657     2.991
    15   1 H        0.922     0.255     0.860     1.450
    16   1 H        0.922     0.285     0.756     1.360
    17   1 H        0.858     0.230     0.966     1.540
    18   1 H        0.858     0.305     0.698     1.308
    19   1 H        2.999     0.812     0.128     0.559

 Mol. C6AA /au·bohr⁶  :      12421.441445
 Mol. C8AA /au·bohr⁸  :     423462.877650
 Mol. α(0) /au        :        168.121940


Wiberg/Mayer (AO) data.
largest (>0.10) Wiberg bond orders for each atom

 ---------------------------------------------------------------------------
     #   Z sym  total        # sym  WBO       # sym  WBO       # sym  WBO
 ---------------------------------------------------------------------------
     1   6 C    2.968 --     2 C    1.036    10 H    0.874     5 C    0.447
                             9 Cl   0.273     6 C    0.142
     2   6 C    3.497 --     3 O    1.275     1 C    1.036    11 H    0.939
     3   8 O    2.719 --     4 C    1.376     2 C    1.275
     4   6 C    3.404 --     3 O    1.376    12 H    0.959     9 Cl   0.586
     5   6 C    0.324 --     1 C    0.447     6 C    0.113
     6   6 C    3.505 --    14 H    0.945    13 H    0.905     7 C    0.789
                             9 Cl   0.304    19 H    0.186     1 C    0.142
                             5 C    0.113
     7   6 C    3.818 --     8 N    1.122    16 H    0.820     6 C    0.789
                            15 H    0.788    19 H    0.155
     8   7 N    3.163 --     7 C    1.122    17 H    0.929    18 H    0.881
     9  17 Cl   0.753 --     4 C    0.586     6 C    0.304     1 C    0.273
    10   1 H    0.968 --     1 C    0.874
    11   1 H    0.970 --     2 C    0.939
    12   1 H    0.983 --     4 C    0.959
    13   1 H    0.974 --     6 C    0.905
    14   1 H    0.993 --     6 C    0.945
    15   1 H    0.891 --     7 C    0.788
    16   1 H    0.897 --     7 C    0.820
    17   1 H    0.946 --     8 N    0.929
    18   1 H    0.892 --     8 N    0.881
    19   1 H    0.336 --     6 C    0.186     7 C    0.155
 ---------------------------------------------------------------------------

Topologies differ in total number of bonds
Writing topology from bond orders to xtbtopo.mol

molecular dipole:
                 x           y           z       tot (Debye)
 q only:       -2.184       0.898       2.748
   full:       -1.965       1.487       3.241      10.349
molecular quadrupole (traceless):
                xx          xy          yy          xz          yz          zz
 q only:       37.973       6.480     -10.172      11.345       0.227     -27.800
  q+dip:       28.149       8.642      -5.827      10.191       1.675     -22.321
   full:       30.867       8.488      -8.473      10.142       0.765     -22.394


           -------------------------------------------------
          | TOTAL ENERGY                1.915902969482 Eh   |
          | GRADIENT NORM             181.072259656072 Eh/α |
          | HOMO-LUMO GAP               0.097232324096 eV   |
           -------------------------------------------------

------------------------------------------------------------------------
 * finished run on 2026/07/30 at 19:57:29.328     
------------------------------------------------------------------------
 total:
 * wall-time:     0 d,  0 h,  0 min,  0.106 sec
 *  cpu-time:     0 d,  0 h,  0 min,  0.234 sec
 * ratio c/w:     2.217 speedup
 SCF:
 * wall-time:     0 d,  0 h,  0 min,  0.071 sec
 *  cpu-time:     0 d,  0 h,  0 min,  0.203 sec
 * ratio c/w:     2.867 speedup

