21
Mol_10
C 2.985397 0.948177 0.681108
N 1.809573 0.101301 0.528946
C 0.802061 0.353587 -0.321892
N -0.109048 -0.623241 -0.167639
C 0.323484 -1.506233 0.807562
C 1.532469 -1.046817 1.248927
C -1.378217 -0.697549 -0.916097
C -2.154889 0.623225 -0.853066
O -1.597676 1.718890 -0.826235
N -3.516239 0.538108 -0.836149
Cl 0.000000 0.000000 0.000000
H 2.807196 1.654914 1.495675
H 3.166994 1.494564 -0.248316
H 3.857358 0.329322 0.909353
H 0.748578 1.191062 -1.009772
H -0.288930 -2.352236 1.068455
H 2.236704 -1.387761 1.988294
H -1.145468 -0.919320 -1.962275
H -1.988266 -1.508070 -0.504509
H -4.049078 -0.318720 -0.917665
H -4.042005 1.406798 -0.815612
