      -----------------------------------------------------------      
     |                   =====================                   |     
     |                           x T B                           |     
     |                   =====================                   |     
     |                         S. Grimme                         |     
     |          Mulliken Center for Theoretical Chemistry        |     
     |                    University of Bonn                     |     
      -----------------------------------------------------------      

   * xtb version 6.7.1 (edcfbbe) compiled by 'VssAdministrator@runnervmowedg' on 2025-09-04

   xtb is free software: you can redistribute it and/or modify it under
   the terms of the GNU Lesser General Public License as published by
   the Free Software Foundation, either version 3 of the License, or
   (at your option) any later version.
   
   xtb is distributed in the hope that it will be useful,
   but WITHOUT ANY WARRANTY; without even the implied warranty of
   MERCHANTABILITY or FITNESS FOR A PARTICULAR PURPOSE.  See the
   GNU Lesser General Public License for more details.
   
   Cite this work as:
   * C. Bannwarth, E. Caldeweyher, S. Ehlert, A. Hansen, P. Pracht,
     J. Seibert, S. Spicher, S. Grimme, WIREs Comput. Mol. Sci., 2020, 11,
     e01493. DOI: 10.1002/wcms.1493
   
   for GFN2-xTB:
   * C. Bannwarth, S. Ehlert and S. Grimme., J. Chem. Theory Comput., 2019,
     15, 1652-1671. DOI: 10.1021/acs.jctc.8b01176
   for GFN1-xTB:
   * S. Grimme, C. Bannwarth, P. Shushkov, J. Chem. Theory Comput., 2017,
     13, 1989-2009. DOI: 10.1021/acs.jctc.7b00118
   for GFN0-xTB:
   * P. Pracht, E. Caldeweyher, S. Ehlert, S. Grimme, ChemRxiv, 2019, preprint.
     DOI: 10.26434/chemrxiv.8326202.v1
   for GFN-FF:
   * S. Spicher and S. Grimme, Angew. Chem. Int. Ed., 2020, 59, 15665-15673.
     DOI: 10.1002/anie.202004239
   
   for ALPB and GBSA implicit solvation:
   * S. Ehlert, M. Stahn, S. Spicher, S. Grimme, J. Chem. Theory Comput.,
     2021, 17, 4250-4261. DOI: 10.1021/acs.jctc.1c00471
   
   for ddCOSMO and CPCM-X implicit solvation:
   * M. Stahn, S. Ehlert, S. Grimme, J. Phys. Chem. A,
     2023, XX, XXXX-XXXX. DOI: 10.1021/acs.jpca.3c04382
   
   for DFT-D4:
   * E. Caldeweyher, C. Bannwarth and S. Grimme, J. Chem. Phys., 2017,
     147, 034112. DOI: 10.1063/1.4993215
   * E. Caldeweyher, S. Ehlert, A. Hansen, H. Neugebauer, S. Spicher,
     C. Bannwarth and S. Grimme, J. Chem. Phys., 2019, 150, 154122.
     DOI: 10.1063/1.5090222
   * E. Caldeweyher, J.-M. Mewes, S. Ehlert and S. Grimme, Phys. Chem. Chem. Phys.
     2020, 22, 8499-8512. DOI: 10.1039/D0CP00502A
   
   for sTDA-xTB:
   * S. Grimme and C. Bannwarth, J. Chem. Phys., 2016, 145, 054103.
     DOI: 10.1063/1.4959605
   
   in the mass-spec context:
   * V. Asgeirsson, C. Bauer and S. Grimme, Chem. Sci., 2017, 8, 4879.
     DOI: 10.1039/c7sc00601b
   * J. Koopman and S. Grimme, ACS Omega 2019, 4, 12, 15120-15133.
     DOI: 10.1021/acsomega.9b02011
   
   for metadynamics refer to:
   * S. Grimme, J. Chem. Theory Comput., 2019, 155, 2847-2862
     DOI: 10.1021/acs.jctc.9b00143
   
   for SPH calculations refer to:
   * S. Spicher and S. Grimme, J. Chem. Theory Comput., 2021, 17, 1701-1714
     DOI: 10.1021/acs.jctc.0c01306
   
   for ONIOM refer to:
   * C. Plett, A. Katbashev, S. Ehlert, S. Grimme, M. Bursch,
     Phys. Chem. Chem. Phys., 2023, 25, 17860-17868. DOI: 10.1039/D3CP02178E
   
   for DIPRO refer to:
   * J. Kohn, N. Gildemeister, S. Grimme, D. Fazzi, A. Hansen,
     J. Chem. Phys., 2023, just accepted.
   
   for PTB refer to:
   * S. Grimme, M. Mueller, A. Hansen, J. Chem. Phys., 2023, 158, 124111.
     DOI: 10.1063/5.0137838
   
   with help from (in alphabetical order)
   P. Atkinson, C. Bannwarth, F. Bohle, G. Brandenburg, E. Caldeweyher
   M. Checinski, S. Dohm, S. Ehlert, S. Ehrlich, I. Gerasimov, C. Hölzer
   A. Katbashev, J. Kohn, J. Koopman, C. Lavigne, S. Lehtola, F. März, M. Müller,
   F. Musil, H. Neugebauer, J. Pisarek, C. Plett, P. Pracht, F. Pultar,
   J. Seibert, P. Shushkov, S. Spicher, M. Stahn, M. Steiner, T. Strunk,
   J. Stückrath, T. Rose, and J. Unsleber
   
 * started run on 2026/07/30 at 19:57:24.195     
   ID    Z sym.   atoms
    1    6 C      1, 3, 5-8
    2    7 N      2, 4, 10
    3    8 O      9
    4   17 Cl     11
    5    1 H      12-21

           -------------------------------------------------
          |                Calculation Setup                |
           -------------------------------------------------

          program call               : xtb Mol_10.xyz --gfn 2 --sp --alpb acetonitrile
          coordinate file            : Mol_10.xyz
          omp threads                :                    32


           -------------------------------------------------
          |                 G F N 2 - x T B                 |
           -------------------------------------------------

        Reference                      10.1021/acs.jctc.8b01176
      * Hamiltonian:
        H0-scaling (s, p, d)           1.850000    2.230000    2.230000
        zeta-weighting                 0.500000
      * Dispersion:
        s8                             2.700000
        a1                             0.520000
        a2                             5.000000
        s9                             5.000000
      * Repulsion:
        kExp                           1.500000    1.000000
        rExp                           1.000000
      * Coulomb:
        alpha                          2.000000
        third order                    shell-resolved
        anisotropic                    true
        a3                             3.000000
        a5                             4.000000
        cn-shift                       1.200000
        cn-exp                         4.000000
        max-rad                        5.000000

      * Solvation model:               ALPB
        Solvent                        acetonitrile
        Parameter file                 internal GFN2-xTB/ALPB
        Dielectric constant                3.7500E+01
        Reference state                gsolv [1 M gas/solution]
        Free energy shift                  5.1987E-03 Eh       3.2622E+00 kcal/mol
        Temperature                        2.9815E+02 K
        Density                            7.8600E-01 kg/L
        Solvent mass                       4.1050E+01 g/mol
        Interaction kernel             P16
        Born radius scaling (c1)           1.7214E+00
        Born radii integrator          GBOBC
        Born offset                        0.0000E+00 a0       0.0000E+00 AA
        H-bond correction              true
        Ion screening                  false
        Surface tension                    1.0000E-05 Eh       1.5569E+01 dyn/cm
        Grid points                               230 per atom

          ...................................................
          :                      SETUP                      :
          :.................................................:
          :  # basis functions                  60          :
          :  # atomic orbitals                  59          :
          :  # shells                           33          :
          :  # electrons                        62          :
          :  max. iterations                   250          :
          :  Hamiltonian                  GFN2-xTB          :
          :  restarted?                      false          :
          :  GBSA solvation                   true          :
          :  PC potential                    false          :
          :  electronic temp.          300.0000000     K    :
          :  accuracy                    1.0000000          :
          :  -> integral cutoff          0.2500000E+02      :
          :  -> integral neglect         0.1000000E-07      :
          :  -> SCF convergence          0.1000000E-05 Eh   :
          :  -> wf. convergence          0.1000000E-03 e    :
          :  Broyden damping             0.4000000          :
          :  net charge                          0          :
          :  unpaired electrons                  0          :
          ...................................................

 iter      E             dE          RMSdq      gap      omega  full diag
   1    -33.3036717 -0.333037E+02  0.877E+00    1.10       0.0  T
   2    -34.1680996 -0.864428E+00  0.949E+00    0.86       1.0  T
   3    -34.5737233 -0.405624E+00  0.668E+00    0.93       1.0  T
   4    -34.7388809 -0.165158E+00  0.478E+00    0.67       1.0  T
   5    -35.6120528 -0.873172E+00  0.648E+00    0.67       1.0  T
   6    -35.3628385  0.249214E+00  0.601E+00    0.44       1.0  T
   7    -35.2104202  0.152418E+00  0.547E+00    0.28       1.0  T
   8    -35.2926717 -0.822515E-01  0.580E+00    0.37       1.0  T
   9    -34.6542961  0.638376E+00  0.739E+00    0.97       1.0  T
  10    -34.6935621 -0.392660E-01  0.683E+00    0.86       1.0  T
  11    -34.6715371  0.220249E-01  0.802E+00    0.96       1.0  T
  12    -34.7357455 -0.642084E-01  0.119E+01    0.67       1.0  T
  13    -34.6949613  0.407842E-01  0.103E+01    0.84       1.0  T
  14    -34.6942547  0.706583E-03  0.103E+01    0.84       1.0  T
  15    -34.6580729  0.361818E-01  0.892E+00    0.97       1.0  T
  16    -34.7155084 -0.574355E-01  0.444E+00    0.96       1.0  T
  17    -34.9167767 -0.201268E+00  0.457E+00    0.51       1.0  T
  18    -35.4736481 -0.556871E+00  0.627E+00    0.75       1.0  T
  19    -35.9924455 -0.518797E+00  0.704E+00    1.36       1.0  T
  20    -35.9992838 -0.683832E-02  0.705E+00    1.36       1.0  T
  21    -35.9655353  0.337486E-01  0.702E+00    1.33       1.0  T
  22    -36.1312003 -0.165665E+00  0.724E+00    1.34       1.0  T
  23    -35.3035889  0.827611E+00  0.589E+00    0.51       1.0  T
  24    -34.9416939  0.361895E+00  0.462E+00    0.43       1.0  T
  25    -35.1715097 -0.229816E+00  0.566E+00    0.45       1.0  T
  26    -35.2033329 -0.318232E-01  0.573E+00    0.44       1.0  T
  27    -34.9457931  0.257540E+00  0.466E+00    0.39       1.0  T
  28    -34.7176755  0.228118E+00  0.409E+00    0.96       1.0  T
  29    -34.6781267  0.395488E-01  0.467E+00    1.07       1.0  T
  30    -34.6689822  0.914446E-02  0.509E+00    1.10       1.0  T
  31    -34.6629328  0.604947E-02  0.613E+00    1.12       1.0  T
  32    -34.6648103 -0.187753E-02  0.704E+00    1.10       1.0  T
  33    -34.6644227  0.387565E-03  0.641E+00    1.12       1.0  T
  34    -34.6744732 -0.100504E-01  0.549E+00    1.13       1.0  T
  35    -34.7293657 -0.548925E-01  0.404E+00    0.96       1.0  T
  36    -34.8051665 -0.758008E-01  0.377E+00    0.70       1.0  T
  37    -34.8266391 -0.214726E-01  0.380E+00    0.64       1.0  T
  38    -34.9497603 -0.123121E+00  0.430E+00    0.43       1.0  T
  39    -35.0038098 -0.540494E-01  0.455E+00    0.39       1.0  T
  40    -34.9535723  0.502375E-01  0.430E+00    0.42       1.0  T
  41    -34.9112638  0.423085E-01  0.408E+00    0.46       1.0  T
  42    -34.8802391  0.310247E-01  0.391E+00    0.50       1.0  T
  43    -34.8229894  0.572497E-01  0.374E+00    0.63       1.0  T
  44    -34.8452516 -0.222622E-01  0.380E+00    0.56       1.0  T
  45    -34.8090500  0.362017E-01  0.378E+00    0.67       1.0  T
  46    -34.7850273  0.240227E-01  0.385E+00    0.74       1.0  T
  47    -34.7972925 -0.122652E-01  0.384E+00    0.70       1.0  T
  48    -34.8148609 -0.175684E-01  0.382E+00    0.65       1.0  T
  49    -34.8002423  0.146185E-01  0.382E+00    0.69       1.0  T
  50    -34.7728060  0.274363E-01  0.388E+00    0.79       1.0  T
  51    -34.7736511 -0.845050E-03  0.387E+00    0.78       1.0  T
  52    -34.8468096 -0.731585E-01  0.392E+00    0.57       1.0  T
  53    -34.8644513 -0.176416E-01  0.398E+00    0.53       1.0  T
  54    -34.8469125  0.175388E-01  0.393E+00    0.57       1.0  T
  55    -34.7625158  0.843967E-01  0.398E+00    0.82       1.0  T
  56    -34.6978101  0.647057E-01  0.458E+00    1.04       1.0  T
  57    -34.6814295  0.163805E-01  0.488E+00    1.08       1.0  T
  58    -34.6799762  0.145335E-02  0.491E+00    1.09       1.0  T
  59    -34.6907560 -0.107798E-01  0.470E+00    1.06       1.0  T
  60    -34.7319426 -0.411866E-01  0.422E+00    0.92       1.0  T
  61    -34.8031292 -0.711866E-01  0.406E+00    0.69       1.0  T
  62    -34.8752554 -0.721263E-01  0.427E+00    0.53       1.0  T
  63    -34.8712236  0.403177E-02  0.426E+00    0.54       1.0  T
  64    -34.8294660  0.417577E-01  0.412E+00    0.62       1.0  T
  65    -34.8035881  0.258779E-01  0.410E+00    0.69       1.0  T
  66    -34.7821469  0.214411E-01  0.412E+00    0.76       1.0  T
  67    -34.7832709 -0.112392E-02  0.412E+00    0.76       1.0  T
  68    -34.8067695 -0.234987E-01  0.412E+00    0.69       1.0  T
  69    -34.6945356  0.112234E+00  0.473E+00    1.06       1.0  T
  70    -34.6224638  0.720719E-01  0.659E+00    1.27       1.0  T
  71    -34.7432181 -0.120754E+00  0.145E+01    0.94       1.0  T
  72    -39.8375216 -0.509430E+01  0.367E+01    0.51       1.0  T
  73    -39.6175118  0.220010E+00  0.357E+01    0.51       1.0  T
  74    -39.7788437 -0.161332E+00  0.364E+01    0.51       1.0  T
  75    -39.8439857 -0.651420E-01  0.368E+01    0.51       1.0  T
  76    -39.9282323 -0.842466E-01  0.371E+01    0.51       1.0  T
  77    -39.0011816  0.927051E+00  0.486E+01    0.13       1.0  T
  78    -40.0063477 -0.100517E+01  0.456E+01    0.35       1.0  T
  79    -39.7899785  0.216369E+00  0.463E+01    0.25       1.0  T
  80    -40.2389917 -0.449013E+00  0.447E+01    0.36       1.0  T
  81    -35.7573009  0.448169E+01  0.216E+01    0.68       1.0  T
  82    -37.9096299 -0.215233E+01  0.517E+01    0.32       1.0  T
  83    -36.1416710  0.176796E+01  0.687E+01    0.47       1.0  T
  84    -40.2470625 -0.410539E+01  0.397E+01    0.48       1.0  T
  85    -31.8402027  0.840686E+01  0.894E+01    0.48       1.0  T
  86    -35.1933767 -0.335317E+01  0.759E+01    0.41       1.0  T
  87    -36.6124925 -0.141912E+01  0.674E+01    0.50       1.0  T
  88    -39.3218563 -0.270936E+01  0.486E+01    0.08       1.0  T
  89    -37.3863673  0.193549E+01  0.551E+01    0.50       1.0  T
  90    -37.2824302  0.103937E+00  0.559E+01    0.48       1.0  T
  91    -35.6050291  0.167740E+01  0.719E+01    0.40       1.0  T
  92    -34.4700683  0.113496E+01  0.779E+01    0.42       1.0  T
  93    -35.5526030 -0.108253E+01  0.724E+01    0.48       1.0  T
  94    -35.4417428  0.110860E+00  0.727E+01    0.48       1.0  T
  95    -37.3812496 -0.193951E+01  0.589E+01    0.18       1.0  T
  96    -37.9908781 -0.609628E+00  0.490E+01    0.34       1.0  T
  97    -37.6371948  0.353683E+00  0.539E+01    0.31       1.0  T
  98    -40.3614416 -0.272425E+01  0.435E+01    0.25       1.0  T
  99    -37.6167457  0.274470E+01  0.535E+01    0.33       1.0  T
 100    -37.0285648  0.588181E+00  0.577E+01    0.29       1.0  T
 101    -37.3154974 -0.286933E+00  0.555E+01    0.28       1.0  T
 102    -37.4576944 -0.142197E+00  0.545E+01    0.28       1.0  T
 103    -37.8671671 -0.409473E+00  0.515E+01    0.27       1.0  T
 104    -37.7576390  0.109528E+00  0.516E+01    0.25       1.0  T
 105    -37.6087966  0.148842E+00  0.526E+01    0.25       1.0  T
 106    -37.5055462  0.103250E+00  0.533E+01    0.25       1.0  T
 107    -37.5748780 -0.693318E-01  0.528E+01    0.24       1.0  T
 108    -38.1317876 -0.556910E+00  0.486E+01    0.24       1.0  T
 109    -37.9061111  0.225676E+00  0.499E+01    0.24       1.0  T
 110    -37.9549171 -0.488060E-01  0.499E+01    0.20       1.0  T
 111    -38.0318159 -0.768988E-01  0.495E+01    0.17       1.0  T
 112    -38.0797799 -0.479640E-01  0.494E+01    0.15       1.0  T
 113    -38.6774250 -0.597645E+00  0.483E+01    0.09       1.0  T
 114    -38.9813840 -0.303959E+00  0.477E+01    0.12       1.0  T
 115    -38.6180723  0.363312E+00  0.480E+01    0.11       1.0  T
 116    -38.4265636  0.191509E+00  0.486E+01    0.11       1.0  T
 117    -38.5145214 -0.879578E-01  0.486E+01    0.10       1.0  T
 118    -38.5761074 -0.615861E-01  0.483E+01    0.10       1.0  T
 119    -37.9769846  0.599123E+00  0.508E+01    0.11       1.0  T
 120    -37.7806780  0.196307E+00  0.520E+01    0.10       1.0  T
 121    -37.8366427 -0.559646E-01  0.513E+01    0.11       1.0  T
 122    -37.9208271 -0.841845E-01  0.509E+01    0.10       1.0  T
 123    -38.1737247 -0.252898E+00  0.501E+01    0.08       1.0  T
 124    -38.1485071  0.252176E-01  0.500E+01    0.08       1.0  T
 125    -38.7924581 -0.643951E+00  0.480E+01    0.10       1.0  T
 126    -38.5916559  0.200802E+00  0.482E+01    0.10       1.0  T
 127    -38.3789060  0.212750E+00  0.491E+01    0.09       1.0  T
 128    -38.1007678  0.278138E+00  0.497E+01    0.10       1.0  T
 129    -38.0220176  0.787502E-01  0.500E+01    0.11       1.0  T
 130    -37.8066874  0.215330E+00  0.514E+01    0.17       1.0  T
 131    -37.9156597 -0.108972E+00  0.499E+01    0.23       1.0  T
 132    -40.0824974 -0.216684E+01  0.421E+01    0.48       1.0  T
 133    -39.8593193  0.223178E+00  0.451E+01    0.27       1.0  T
 134    -40.1932249 -0.333906E+00  0.413E+01    0.51       1.0  T
 135    -39.7682283  0.424997E+00  0.462E+01    0.31       1.0  T
 136    -39.9359168 -0.167689E+00  0.452E+01    0.24       1.0  T
 137    -39.7597195  0.176197E+00  0.457E+01    0.15       1.0  T
 138    -40.1220568 -0.362337E+00  0.442E+01    0.28       1.0  T
 139    -39.4846723  0.637384E+00  0.473E+01    0.16       1.0  T
 140    -38.2763661  0.120831E+01  0.529E+01    0.06       1.0  T
 141    -37.6490791  0.627287E+00  0.577E+01    0.14       1.0  T
 142    -37.8116693 -0.162590E+00  0.564E+01    0.10       1.0  T
 143    -37.6469777  0.164692E+00  0.577E+01    0.19       1.0  T
 144    -37.6939902 -0.470125E-01  0.574E+01    0.19       1.0  T
 145    -37.5198814  0.174109E+00  0.586E+01    0.20       1.0  T
 146    -37.4354306  0.844509E-01  0.598E+01    0.21       1.0  T
 147    -37.4207476  0.146829E-01  0.599E+01    0.21       1.0  T
 148    -37.3371789  0.835687E-01  0.606E+01    0.21       1.0  T
 149    -37.3866224 -0.494435E-01  0.602E+01    0.21       1.0  T
 150    -37.3603124  0.263100E-01  0.605E+01    0.22       1.0  T
 151    -37.1724011  0.187911E+00  0.619E+01    0.22       1.0  T
 152    -37.2577039 -0.853028E-01  0.613E+01    0.21       1.0  T
 153    -37.4087680 -0.151064E+00  0.600E+01    0.21       1.0  T
 154    -37.4125305 -0.376250E-02  0.602E+01    0.21       1.0  T
 155    -37.8914958 -0.478965E+00  0.563E+01    0.21       1.0  T
 156    -38.4286406 -0.537145E+00  0.522E+01    0.26       1.0  T
 157    -38.6656607 -0.237020E+00  0.504E+01    0.29       1.0  T
 158    -38.6599610  0.569973E-02  0.504E+01    0.29       1.0  T
 159    -38.1817049  0.478256E+00  0.538E+01    0.25       1.0  T
 160    -38.2969947 -0.115290E+00  0.531E+01    0.23       1.0  T
 161    -38.3666477 -0.696530E-01  0.525E+01    0.24       1.0  T
 162    -38.3393122  0.273355E-01  0.527E+01    0.24       1.0  T
 163    -38.2796343  0.596779E-01  0.533E+01    0.23       1.0  T
 164    -38.2941800 -0.145457E-01  0.533E+01    0.22       1.0  T
 165    -38.3332225 -0.390425E-01  0.531E+01    0.22       1.0  T
 166    -38.3739184 -0.406958E-01  0.528E+01    0.22       1.0  T
 167    -38.3008357  0.730827E-01  0.529E+01    0.20       1.0  T
 168    -38.8476361 -0.546800E+00  0.487E+01    0.21       1.0  T
 169    -39.2272865 -0.379650E+00  0.451E+01    0.14       1.0  T
 170    -39.3400531 -0.112767E+00  0.443E+01    0.12       1.0  T
 171    -39.3685502 -0.284971E-01  0.438E+01    0.12       1.0  T
 172    -39.3954231 -0.268729E-01  0.429E+01    0.12       1.0  T
 173    -39.4077340 -0.123109E-01  0.420E+01    0.12       1.0  T
 174    -39.3852592  0.224748E-01  0.429E+01    0.12       1.0  T
 175    -39.2546433  0.130616E+00  0.444E+01    0.11       1.0  T
 176    -39.2408346  0.138087E-01  0.438E+01    0.09       1.0  T
 177    -39.2660455 -0.252108E-01  0.435E+01    0.08       1.0  T
 178    -39.1135394  0.152506E+00  0.438E+01    0.03       1.0  T
 179    -39.0744620  0.390774E-01  0.442E+01    0.03       1.0  T
 180    -39.0832578 -0.879578E-02  0.439E+01    0.04       1.0  T
 181    -39.0663553  0.169025E-01  0.440E+01    0.04       1.0  T
 182    -39.1249368 -0.585815E-01  0.436E+01    0.03       1.0  T
 183    -39.1405800 -0.156432E-01  0.436E+01    0.03       1.0  T
 184    -39.3654122 -0.224832E+00  0.411E+01    0.04       1.0  T
 185    -39.4876989 -0.122287E+00  0.404E+01    0.10       1.0  T
 186    -39.0702745  0.417424E+00  0.374E+01    0.06       1.0  T
 187    -39.1470433 -0.767688E-01  0.373E+01    0.09       1.0  T
 188    -38.2069611  0.940082E+00  0.345E+01    0.09       1.0  T
 189    -36.4508666  0.175609E+01  0.287E+01    0.37       1.0  T
 190    -36.5154959 -0.646293E-01  0.290E+01    0.34       1.0  T
 191    -36.4973903  0.181056E-01  0.288E+01    0.34       1.0  T
 192    -36.3447543  0.152636E+00  0.282E+01    0.41       1.0  T
 193    -35.4965720  0.848182E+00  0.250E+01    0.73       1.0  T
 194    -34.4445933  0.105198E+01  0.162E+01    0.61       1.0  T
 195    -34.5588884 -0.114295E+00  0.767E+00    1.19       1.0  T
 196    -40.9869627 -0.642807E+01  0.123E+01    1.00       1.0  T
 197    -41.2054866 -0.218524E+00  0.123E+01    1.00       1.0  T
 198    -42.2386052 -0.103312E+01  0.126E+01    0.98       1.0  T
 199    -43.4854468 -0.124684E+01  0.124E+01    1.07       1.0  T
 200    -44.5534491 -0.106800E+01  0.129E+01    1.51       1.0  T
 201    -45.0835337 -0.530085E+00  0.136E+01    2.12       1.0  T
 202    -44.4176734  0.665860E+00  0.129E+01    1.43       1.0  T
 203    -43.9025815  0.515092E+00  0.126E+01    1.25       1.0  T
 204    -44.8335673 -0.930986E+00  0.108E+01    1.45       1.0  T
 205    -43.3249739  0.150859E+01  0.106E+01    0.54       1.0  T
 206    -34.4084986  0.891648E+01  0.154E+01    1.26       1.0  T
 207    -37.1252178 -0.271672E+01  0.602E+01    0.23       1.0  T
 208    -36.1723347  0.952883E+00  0.252E+01    0.62       1.0  T
 209    -37.9714448 -0.179911E+01  0.303E+01    0.20       1.0  T
 210    -40.2441523 -0.227271E+01  0.411E+01    0.14       1.0  T
 211    -39.6435109  0.600641E+00  0.379E+01    0.12       1.0  T
 212    -39.6580471 -0.145361E-01  0.380E+01    0.08       1.0  T
 213    -39.5927350  0.653121E-01  0.378E+01    0.08       1.0  T
 214    -39.6244891 -0.317541E-01  0.378E+01    0.08       1.0  T
 215    -39.2100705  0.414419E+00  0.356E+01    0.05       1.0  T
 216    -38.4539428  0.756128E+00  0.329E+01    0.02       1.0  T
 217    -36.9711513  0.148279E+01  0.279E+01    0.41       1.0  T
 218    -36.2877449  0.683406E+00  0.255E+01    0.71       1.0  T
 219    -35.6191968  0.668548E+00  0.226E+01    0.61       1.0  T
 220    -35.4182857  0.200911E+00  0.211E+01    0.42       1.0  T
 221    -37.6567227 -0.223844E+01  0.292E+01    0.39       1.0  T
 222    -39.0121732 -0.135545E+01  0.334E+01    0.22       1.0  T
 223    -36.3487621  0.266341E+01  0.256E+01    0.64       1.0  T
 224    -38.9785751 -0.262981E+01  0.331E+01    0.27       1.0  T
 225    -37.7660264  0.121255E+01  0.293E+01    0.33       1.0  T
 226    -38.6924224 -0.926396E+00  0.321E+01    0.35       1.0  T
 227    -36.3993292  0.229309E+01  0.253E+01    0.69       1.0  T
 228    -37.7401726 -0.134084E+01  0.290E+01    0.45       1.0  T
 229    -38.0591045 -0.318932E+00  0.298E+01    0.46       1.0  T
 230    -37.6615401  0.397564E+00  0.286E+01    0.52       1.0  T
 231    -38.0696406 -0.408100E+00  0.298E+01    0.50       1.0  T
 232    -37.6015677  0.468073E+00  0.284E+01    0.57       1.0  T
 233    -37.6952269 -0.936592E-01  0.287E+01    0.57       1.0  T
 234    -37.6136536  0.815734E-01  0.284E+01    0.57       1.0  T
 235    -37.6157006 -0.204701E-02  0.285E+01    0.57       1.0  T
 236    -37.6005263  0.151743E-01  0.284E+01    0.57       1.0  T
 237    -37.6648000 -0.642737E-01  0.286E+01    0.56       1.0  T
 238    -37.7213809 -0.565809E-01  0.287E+01    0.56       1.0  T
 239    -38.0608427 -0.339462E+00  0.298E+01    0.55       1.0  T
 240    -38.1646179 -0.103775E+00  0.301E+01    0.52       1.0  T
 241    -38.0533503  0.111268E+00  0.298E+01    0.45       1.0  T
 242    -37.6743402  0.379010E+00  0.287E+01    0.55       1.0  T
 243    -37.5967484  0.775917E-01  0.285E+01    0.56       1.0  T
 244    -37.5868571  0.989136E-02  0.285E+01    0.56       1.0  T
 245    -37.5876476 -0.790567E-03  0.285E+01    0.56       1.0  T
 246    -37.6041224 -0.164748E-01  0.285E+01    0.56       1.0  T
 247    -37.6658081 -0.616857E-01  0.287E+01    0.55       1.0  T
 248    -37.7002163 -0.344082E-01  0.288E+01    0.55       1.0  T
 249    -37.7323452 -0.321289E-01  0.289E+01    0.54       1.0  T
 250    -37.6909147  0.414305E-01  0.288E+01    0.54       1.0  T

   *** convergence criteria cannot be satisfied within 250 iterations ***

         #    Occupation            Energy/Eh            Energy/eV
      -------------------------------------------------------------
         1        2.0000           -1.3125806             -35.7171
       ...           ...                  ...                  ...
        25        2.0000           -0.4443383             -12.0911
        26        2.0000           -0.4284430             -11.6585
        27        2.0000           -0.4186645             -11.3924
        28        2.0000           -0.4088950             -11.1266
        29        2.0000           -0.3840924             -10.4517
        30        2.0000           -0.3771624             -10.2631
        31        1.9999           -0.3751129             -10.2073 (HOMO)
        32        0.0001           -0.3553032              -9.6683 (LUMO)
        33                         -0.2927199              -7.9653
        34                         -0.1794076              -4.8819
        35                         -0.1447419              -3.9386
        36                         -0.0936673              -2.5488
       ...                                ...                  ...
        59                         38.7856655            1055.4117
      -------------------------------------------------------------
                  HL-Gap            0.0198096 Eh            0.5390 eV
             Fermi-level           -0.3651560 Eh           -9.9364 eV

 SCC (total)                   0 d,  0 h,  0 min,  0.335 sec
 SCC setup                      ...        0 min,  0.001 sec (  0.168%)
 Dispersion                     ...        0 min,  0.000 sec (  0.089%)
 classical contributions        ...        0 min,  0.000 sec (  0.030%)
 integral evaluation            ...        0 min,  0.006 sec (  1.648%)
 iterations                     ...        0 min,  0.325 sec ( 97.250%)
 molecular gradient             ...        0 min,  0.002 sec (  0.736%)
 printout                       ...        0 min,  0.000 sec (  0.073%)

########################################################################
[ERROR] Program stopped due to fatal error
-3- Single point calculation terminated
-2- xtb_calculator_singlepoint: Electronic structure method terminated
-1- scf: Self consistent charge iterator did not converge
########################################################################
