16
Mol_1
C -2.080309 0.169701 -0.511360
C -0.826847 0.760422 -0.564227
N 0.001169 -0.063938 0.133953
N -0.686719 -1.085814 0.584083
C -1.982807 -1.001116 0.218948
C 1.393902 0.196470 0.314209
N 1.709992 1.312976 0.923492
N 2.409734 -0.690543 -0.133206
Cl 0.682834 0.000000 0.000000
H -3.000140 0.539602 -0.957494
H -0.563189 1.696280 -1.065252
H -2.800919 -1.696516 0.440475
H 0.864867 1.891203 1.209855
H 2.699146 -0.677961 -1.141701
H 2.862121 -1.350766 0.548224
H -0.682834 0.000000 0.000000
