29
Mol_4
C 1.792908 -0.793516 -1.060542
C 1.309821 0.024826 0.163619
C 0.997603 1.475138 -0.298429
C -0.328472 1.597158 -1.033919
C -1.446057 1.071444 -0.145701
C -1.218685 -0.392878 0.321669
N 0.141714 -0.516098 0.903181
O 0.391368 -1.875775 1.303754
C -2.273572 -0.644820 1.437730
C -1.558749 -1.347226 -0.851022
C 2.516909 0.146541 1.138288
H 1.061570 -0.827154 -1.868322
H 2.051702 -1.824167 -0.795366
H 2.699691 -0.345286 -1.485889
H 0.967244 2.143385 0.573929
H 1.801438 1.854156 -0.942583
H -0.299207 1.059486 -1.986802
H -0.517411 2.649752 -1.274695
H -2.400774 1.159939 -0.679951
H -1.525907 1.731525 0.729740
H -2.285850 -1.689626 1.768142
H -2.082471 -0.016476 2.316140
H -3.284125 -0.408883 1.082676
H -0.958725 -1.161039 -1.741975
H -1.439629 -2.400929 -0.577060
H -2.605811 -1.221697 -1.154319
H 3.347676 0.686665 0.668143
H 2.903254 -0.832419 1.443763
H 2.242547 0.697976 2.045801
