      -----------------------------------------------------------      
     |                   =====================                   |     
     |                           x T B                           |     
     |                   =====================                   |     
     |                         S. Grimme                         |     
     |          Mulliken Center for Theoretical Chemistry        |     
     |                    University of Bonn                     |     
      -----------------------------------------------------------      

   * xtb version 6.7.1 (edcfbbe) compiled by 'VssAdministrator@runnervmowedg' on 2025-09-04

   xtb is free software: you can redistribute it and/or modify it under
   the terms of the GNU Lesser General Public License as published by
   the Free Software Foundation, either version 3 of the License, or
   (at your option) any later version.
   
   xtb is distributed in the hope that it will be useful,
   but WITHOUT ANY WARRANTY; without even the implied warranty of
   MERCHANTABILITY or FITNESS FOR A PARTICULAR PURPOSE.  See the
   GNU Lesser General Public License for more details.
   
   Cite this work as:
   * C. Bannwarth, E. Caldeweyher, S. Ehlert, A. Hansen, P. Pracht,
     J. Seibert, S. Spicher, S. Grimme, WIREs Comput. Mol. Sci., 2020, 11,
     e01493. DOI: 10.1002/wcms.1493
   
   for GFN2-xTB:
   * C. Bannwarth, S. Ehlert and S. Grimme., J. Chem. Theory Comput., 2019,
     15, 1652-1671. DOI: 10.1021/acs.jctc.8b01176
   for GFN1-xTB:
   * S. Grimme, C. Bannwarth, P. Shushkov, J. Chem. Theory Comput., 2017,
     13, 1989-2009. DOI: 10.1021/acs.jctc.7b00118
   for GFN0-xTB:
   * P. Pracht, E. Caldeweyher, S. Ehlert, S. Grimme, ChemRxiv, 2019, preprint.
     DOI: 10.26434/chemrxiv.8326202.v1
   for GFN-FF:
   * S. Spicher and S. Grimme, Angew. Chem. Int. Ed., 2020, 59, 15665-15673.
     DOI: 10.1002/anie.202004239
   
   for ALPB and GBSA implicit solvation:
   * S. Ehlert, M. Stahn, S. Spicher, S. Grimme, J. Chem. Theory Comput.,
     2021, 17, 4250-4261. DOI: 10.1021/acs.jctc.1c00471
   
   for ddCOSMO and CPCM-X implicit solvation:
   * M. Stahn, S. Ehlert, S. Grimme, J. Phys. Chem. A,
     2023, XX, XXXX-XXXX. DOI: 10.1021/acs.jpca.3c04382
   
   for DFT-D4:
   * E. Caldeweyher, C. Bannwarth and S. Grimme, J. Chem. Phys., 2017,
     147, 034112. DOI: 10.1063/1.4993215
   * E. Caldeweyher, S. Ehlert, A. Hansen, H. Neugebauer, S. Spicher,
     C. Bannwarth and S. Grimme, J. Chem. Phys., 2019, 150, 154122.
     DOI: 10.1063/1.5090222
   * E. Caldeweyher, J.-M. Mewes, S. Ehlert and S. Grimme, Phys. Chem. Chem. Phys.
     2020, 22, 8499-8512. DOI: 10.1039/D0CP00502A
   
   for sTDA-xTB:
   * S. Grimme and C. Bannwarth, J. Chem. Phys., 2016, 145, 054103.
     DOI: 10.1063/1.4959605
   
   in the mass-spec context:
   * V. Asgeirsson, C. Bauer and S. Grimme, Chem. Sci., 2017, 8, 4879.
     DOI: 10.1039/c7sc00601b
   * J. Koopman and S. Grimme, ACS Omega 2019, 4, 12, 15120-15133.
     DOI: 10.1021/acsomega.9b02011
   
   for metadynamics refer to:
   * S. Grimme, J. Chem. Theory Comput., 2019, 155, 2847-2862
     DOI: 10.1021/acs.jctc.9b00143
   
   for SPH calculations refer to:
   * S. Spicher and S. Grimme, J. Chem. Theory Comput., 2021, 17, 1701-1714
     DOI: 10.1021/acs.jctc.0c01306
   
   for ONIOM refer to:
   * C. Plett, A. Katbashev, S. Ehlert, S. Grimme, M. Bursch,
     Phys. Chem. Chem. Phys., 2023, 25, 17860-17868. DOI: 10.1039/D3CP02178E
   
   for DIPRO refer to:
   * J. Kohn, N. Gildemeister, S. Grimme, D. Fazzi, A. Hansen,
     J. Chem. Phys., 2023, just accepted.
   
   for PTB refer to:
   * S. Grimme, M. Mueller, A. Hansen, J. Chem. Phys., 2023, 158, 124111.
     DOI: 10.1063/5.0137838
   
   with help from (in alphabetical order)
   P. Atkinson, C. Bannwarth, F. Bohle, G. Brandenburg, E. Caldeweyher
   M. Checinski, S. Dohm, S. Ehlert, S. Ehrlich, I. Gerasimov, C. Hölzer
   A. Katbashev, J. Kohn, J. Koopman, C. Lavigne, S. Lehtola, F. März, M. Müller,
   F. Musil, H. Neugebauer, J. Pisarek, C. Plett, P. Pracht, F. Pultar,
   J. Seibert, P. Shushkov, S. Spicher, M. Stahn, M. Steiner, T. Strunk,
   J. Stückrath, T. Rose, and J. Unsleber
   
 * started run on 2026/07/30 at 19:57:39.324     
   ID    Z sym.   atoms
    1    6 C      1-6, 9-11
    2    7 N      7
    3    8 O      8
    4    1 H      12-29

           -------------------------------------------------
          |                Calculation Setup                |
           -------------------------------------------------

          program call               : xtb Mol_4.xyz --gfn 2 --sp --alpb acetonitrile
          coordinate file            : Mol_4.xyz
          omp threads                :                    32


           -------------------------------------------------
          |                 G F N 2 - x T B                 |
           -------------------------------------------------

        Reference                      10.1021/acs.jctc.8b01176
      * Hamiltonian:
        H0-scaling (s, p, d)           1.850000    2.230000    2.230000
        zeta-weighting                 0.500000
      * Dispersion:
        s8                             2.700000
        a1                             0.520000
        a2                             5.000000
        s9                             5.000000
      * Repulsion:
        kExp                           1.500000    1.000000
        rExp                           1.000000
      * Coulomb:
        alpha                          2.000000
        third order                    shell-resolved
        anisotropic                    true
        a3                             3.000000
        a5                             4.000000
        cn-shift                       1.200000
        cn-exp                         4.000000
        max-rad                        5.000000

      * Solvation model:               ALPB
        Solvent                        acetonitrile
        Parameter file                 internal GFN2-xTB/ALPB
        Dielectric constant                3.7500E+01
        Reference state                gsolv [1 M gas/solution]
        Free energy shift                  5.1987E-03 Eh       3.2622E+00 kcal/mol
        Temperature                        2.9815E+02 K
        Density                            7.8600E-01 kg/L
        Solvent mass                       4.1050E+01 g/mol
        Interaction kernel             P16
        Born radius scaling (c1)           1.7214E+00
        Born radii integrator          GBOBC
        Born offset                        0.0000E+00 a0       0.0000E+00 AA
        H-bond correction              true
        Ion screening                  false
        Surface tension                    1.0000E-05 Eh       1.5569E+01 dyn/cm
        Grid points                               230 per atom

          ...................................................
          :                      SETUP                      :
          :.................................................:
          :  # basis functions                  62          :
          :  # atomic orbitals                  62          :
          :  # shells                           40          :
          :  # electrons                        65          :
          :  max. iterations                   250          :
          :  Hamiltonian                  GFN2-xTB          :
          :  restarted?                      false          :
          :  GBSA solvation                   true          :
          :  PC potential                    false          :
          :  electronic temp.          300.0000000     K    :
          :  accuracy                    1.0000000          :
          :  -> integral cutoff          0.2500000E+02      :
          :  -> integral neglect         0.1000000E-07      :
          :  -> SCF convergence          0.1000000E-05 Eh   :
          :  -> wf. convergence          0.1000000E-03 e    :
          :  Broyden damping             0.4000000          :
          :  net charge                          0          :
          :  unpaired electrons                  0          :
          ...................................................

 iter      E             dE          RMSdq      gap      omega  full diag
   1    -35.6246455 -0.356246E+02  0.314E+00    7.41       0.0  T
   2    -35.7511005 -0.126455E+00  0.191E+00    7.26       1.0  T
   3    -35.7810566 -0.299561E-01  0.957E-01    7.53       1.0  T
   4    -35.7817405 -0.683914E-03  0.284E-01    7.47       1.0  T
   5    -35.7825250 -0.784409E-03  0.759E-02    7.48       1.0  T
   6    -35.7825602 -0.352683E-04  0.393E-02    7.48       1.0  T
   7    -35.7825624 -0.215992E-05  0.908E-03    7.48       2.0  T
   8    -35.7825633 -0.933093E-06  0.309E-03    7.48       6.0  T
   9    -35.7825634 -0.315999E-07  0.134E-03    7.48      13.9  T
  10    -35.7825634 -0.906859E-08  0.523E-04    7.48      35.5  T
  11    -35.7825634 -0.459558E-08  0.116E-04    7.48     159.6  T

   *** convergence criteria satisfied after 11 iterations ***

         #    Occupation            Energy/Eh            Energy/eV
      -------------------------------------------------------------
         1        2.0000           -0.6636034             -18.0576
       ...           ...                  ...                  ...
        27        2.0000           -0.4445030             -12.0955
        28        2.0000           -0.4394156             -11.9571
        29        2.0000           -0.4335438             -11.7973
        30        2.0000           -0.4280719             -11.6484
        31        2.0000           -0.4209447             -11.4545
        32        2.0000           -0.3975540             -10.8180
        33        1.0000           -0.3576498              -9.7321 (HOMO)
        34                         -0.0827853              -2.2527 (LUMO)
        35                         -0.0289460              -0.7877
        36                          0.0317210               0.8632
        37                          0.0546803               1.4879
        38                          0.0550249               1.4973
       ...                                ...                  ...
        62                          0.2962255               8.0607
      -------------------------------------------------------------
                  HL-Gap            0.2748645 Eh            7.4794 eV
             Fermi-level           -0.2989097 Eh           -8.1337 eV

 SCC (total)                   0 d,  0 h,  0 min,  0.034 sec
 SCC setup                      ...        0 min,  0.001 sec (  2.169%)
 Dispersion                     ...        0 min,  0.000 sec (  1.237%)
 classical contributions        ...        0 min,  0.000 sec (  0.326%)
 integral evaluation            ...        0 min,  0.001 sec (  1.868%)
 iterations                     ...        0 min,  0.030 sec ( 87.209%)
 molecular gradient             ...        0 min,  0.002 sec (  5.943%)
 printout                       ...        0 min,  0.000 sec (  1.186%)

         :::::::::::::::::::::::::::::::::::::::::::::::::::::
         ::                     SUMMARY                     ::
         :::::::::::::::::::::::::::::::::::::::::::::::::::::
         :: total energy             -35.374539001104 Eh    ::
         :: total w/o Gsasa/hb       -35.364481153440 Eh    ::
         :: gradient norm              0.292539476032 Eh/a0 ::
         :: HOMO-LUMO gap              7.479444337054 eV    ::
         ::.................................................::
         :: SCC energy               -35.782229598603 Eh    ::
         :: -> isotropic ES            0.048888832476 Eh    ::
         :: -> anisotropic ES          0.004738466829 Eh    ::
         :: -> anisotropic XC          0.016735433761 Eh    ::
         :: -> dispersion             -0.024706258796 Eh    ::
         :: -> Gsolv                  -0.017956440878 Eh    ::
         ::    -> Gelec               -0.007898593215 Eh    ::
         ::    -> Gsasa               -0.014618680220 Eh    ::
         ::    -> Ghb                 -0.000637822195 Eh    ::
         ::    -> Gshift               0.005198654751 Eh    ::
         :: repulsion energy           0.407690597499 Eh    ::
         :: add. restraining           0.000000000000 Eh    ::
         :: total charge               0.000000000000 e     ::
         :::::::::::::::::::::::::::::::::::::::::::::::::::::

           -------------------------------------------------
          |                Property Printout                |
           -------------------------------------------------

    * Orbital Energies and Occupations

         #    Occupation            Energy/Eh            Energy/eV
      -------------------------------------------------------------
         1        2.0000           -0.6636034             -18.0576
       ...           ...                  ...                  ...
        21        2.0000           -0.4695654             -12.7775
        22        2.0000           -0.4680374             -12.7359
        23        2.0000           -0.4602490             -12.5240
        24        2.0000           -0.4591227             -12.4934
        25        2.0000           -0.4565427             -12.4232
        26        2.0000           -0.4504089             -12.2562
        27        2.0000           -0.4445030             -12.0955
        28        2.0000           -0.4394156             -11.9571
        29        2.0000           -0.4335438             -11.7973
        30        2.0000           -0.4280719             -11.6484
        31        2.0000           -0.4209447             -11.4545
        32        2.0000           -0.3975540             -10.8180
        33        1.0000           -0.3576498              -9.7321 (HOMO)
        34                         -0.0827853              -2.2527 (LUMO)
        35                         -0.0289460              -0.7877
        36                          0.0317210               0.8632
        37                          0.0546803               1.4879
        38                          0.0550249               1.4973
        39                          0.0656329               1.7860
        40                          0.0725351               1.9738
        41                          0.0865815               2.3560
        42                          0.1076951               2.9305
        43                          0.1098476               2.9891
        44                          0.1135345               3.0894
       ...                                ...                  ...
        62                          0.2962255               8.0607
      -------------------------------------------------------------
                  HL-Gap            0.2748645 Eh            7.4794 eV
             Fermi-level           -0.2989097 Eh           -8.1337 eV

     #   Z          covCN         q      C6AA      α(0)
     1   6 C        3.752    -0.103    22.537     6.770
     2   6 C        3.825     0.081    19.210     6.237
     3   6 C        3.810    -0.077    21.965     6.671
     4   6 C        3.801    -0.061    21.664     6.627
     5   6 C        3.810    -0.077    21.965     6.671
     6   6 C        3.825     0.081    19.210     6.237
     7   7 N        2.723     0.094    19.615     6.578
     8   8 O        0.906    -0.489    23.509     6.502
     9   6 C        3.754    -0.110    22.670     6.789
    10   6 C        3.752    -0.103    22.537     6.770
    11   6 C        3.754    -0.111    22.670     6.789
    12   1 H        0.925     0.045     2.382     2.414
    13   1 H        0.924     0.049     2.329     2.387
    14   1 H        0.924     0.052     2.291     2.367
    15   1 H        0.923     0.048     2.349     2.397
    16   1 H        0.924     0.052     2.300     2.372
    17   1 H        0.924     0.040     2.453     2.449
    18   1 H        0.924     0.047     2.364     2.405
    19   1 H        0.924     0.052     2.300     2.372
    20   1 H        0.923     0.048     2.349     2.397
    21   1 H        0.924     0.053     2.284     2.363
    22   1 H        0.924     0.045     2.383     2.414
    23   1 H        0.924     0.050     2.321     2.382
    24   1 H        0.925     0.045     2.382     2.413
    25   1 H        0.924     0.049     2.329     2.387
    26   1 H        0.924     0.052     2.291     2.367
    27   1 H        0.924     0.050     2.321     2.382
    28   1 H        0.924     0.053     2.284     2.363
    29   1 H        0.924     0.045     2.383     2.414

 Mol. C6AA /au·bohr⁶  :       6157.086534
 Mol. C8AA /au·bohr⁸  :     131449.256654
 Mol. α(0) /au        :        115.686928


Wiberg/Mayer (AO) data.
largest (>0.10) Wiberg bond orders for each atom

 ---------------------------------------------------------------------------
     #   Z sym  total        # sym  WBO       # sym  WBO       # sym  WBO
 ---------------------------------------------------------------------------
     1   6 C    3.990 --    13 H    0.984    14 H    0.980    12 H    0.976
                             2 C    0.972
     2   6 C    3.962 --    11 C    0.984     3 C    0.977     1 C    0.972
                             7 N    0.967
     3   6 C    3.993 --     4 C    1.010     2 C    0.977    15 H    0.974
                            16 H    0.973
     4   6 C    3.997 --     5 C    1.010     3 C    1.010    18 H    0.973
                            17 H    0.973
     5   6 C    3.993 --     4 C    1.010     6 C    0.977    20 H    0.974
                            19 H    0.973
     6   6 C    3.962 --     9 C    0.984     5 C    0.977    10 C    0.972
                             7 N    0.967
     7   7 N    3.433 --     8 O    1.385     6 C    0.967     2 C    0.967
     8   8 O    1.558 --     7 N    1.385
     9   6 C    3.991 --    22 H    0.985    21 H    0.984     6 C    0.984
                            23 H    0.984
    10   6 C    3.990 --    25 H    0.984    26 H    0.980    24 H    0.976
                             6 C    0.972
    11   6 C    3.991 --    29 H    0.985    28 H    0.984     2 C    0.984
                            27 H    0.984
    12   1 H    0.998 --     1 C    0.976
    13   1 H    0.998 --     1 C    0.984
    14   1 H    0.997 --     1 C    0.980
    15   1 H    0.998 --     3 C    0.974
    16   1 H    0.997 --     3 C    0.973
    17   1 H    0.998 --     4 C    0.973
    18   1 H    0.997 --     4 C    0.973
    19   1 H    0.997 --     5 C    0.973
    20   1 H    0.998 --     5 C    0.974
    21   1 H    0.997 --     9 C    0.984
    22   1 H    0.998 --     9 C    0.985
    23   1 H    0.997 --     9 C    0.984
    24   1 H    0.998 --    10 C    0.976
    25   1 H    0.998 --    10 C    0.984
    26   1 H    0.997 --    10 C    0.980
    27   1 H    0.997 --    11 C    0.984
    28   1 H    0.997 --    11 C    0.984
    29   1 H    0.998 --    11 C    0.985
 ---------------------------------------------------------------------------

Topologies differ in total number of bonds
Writing topology from bond orders to xtbtopo.mol

molecular dipole:
                 x           y           z       tot (Debye)
 q only:       -0.336       1.622      -1.091
   full:       -0.329       1.548      -1.174       5.009
molecular quadrupole (traceless):
                xx          xy          yy          xz          yz          zz
 q only:        8.004       2.830      -6.213      -1.671       6.193      -1.791
  q+dip:        7.776       2.849      -6.149      -1.818       7.227      -1.627
   full:        7.729       2.833      -6.168      -1.784       7.065      -1.561


           -------------------------------------------------
          | TOTAL ENERGY              -35.374539001104 Eh   |
          | GRADIENT NORM               0.292539476032 Eh/α |
          | HOMO-LUMO GAP               7.479444337054 eV   |
           -------------------------------------------------

------------------------------------------------------------------------
 * finished run on 2026/07/30 at 19:57:39.384     
------------------------------------------------------------------------
 total:
 * wall-time:     0 d,  0 h,  0 min,  0.059 sec
 *  cpu-time:     0 d,  0 h,  0 min,  0.016 sec
 * ratio c/w:     0.263 speedup
 SCF:
 * wall-time:     0 d,  0 h,  0 min,  0.035 sec
 *  cpu-time:     0 d,  0 h,  0 min,  0.000 sec
 * ratio c/w:     0.000 speedup

