32
Mol_5
C 4.295782 -0.743192 -0.172088
C 3.257834 0.385227 -0.082058
C 2.045004 -0.102609 0.670925
C 0.996801 0.971348 0.790441
C 0.498074 1.463464 -0.522140
C -0.133828 0.400689 -1.376342
N -1.279725 -0.214974 -0.735043
C -1.352416 -1.283692 0.067549
C -2.679498 -1.443595 0.400991
N -3.398844 -0.495787 -0.183748
C -2.541207 0.272463 -0.891247
C -4.847259 -0.284536 -0.105287
I 0.000000 0.000000 0.000000
H 4.193972 -1.361160 0.758202
H 4.040050 -1.313234 -1.086896
H 5.291995 -0.270563 -0.210237
H 3.726836 1.205498 0.481839
H 2.934181 0.652087 -1.106309
H 2.345318 -0.384805 1.715617
H 1.680586 -1.006285 0.121451
H 1.505684 1.835337 1.286365
H 0.212686 0.652933 1.490069
H -0.261113 2.275302 -0.418648
H 1.337507 1.897821 -1.089532
H 0.608973 -0.364320 -1.728046
H -0.446020 0.916462 -2.322001
H -0.536569 -1.884489 0.379810
H -3.040762 -2.246852 1.053931
H -2.821025 1.149324 -1.494731
H -5.175429 -0.423379 0.946187
H -5.096214 0.744340 -0.444150
H -5.361374 -0.998824 -0.757375
