      -----------------------------------------------------------      
     |                   =====================                   |     
     |                           x T B                           |     
     |                   =====================                   |     
     |                         S. Grimme                         |     
     |          Mulliken Center for Theoretical Chemistry        |     
     |                    University of Bonn                     |     
      -----------------------------------------------------------      

   * xtb version 6.7.1 (edcfbbe) compiled by 'VssAdministrator@runnervmowedg' on 2025-09-04

   xtb is free software: you can redistribute it and/or modify it under
   the terms of the GNU Lesser General Public License as published by
   the Free Software Foundation, either version 3 of the License, or
   (at your option) any later version.
   
   xtb is distributed in the hope that it will be useful,
   but WITHOUT ANY WARRANTY; without even the implied warranty of
   MERCHANTABILITY or FITNESS FOR A PARTICULAR PURPOSE.  See the
   GNU Lesser General Public License for more details.
   
   Cite this work as:
   * C. Bannwarth, E. Caldeweyher, S. Ehlert, A. Hansen, P. Pracht,
     J. Seibert, S. Spicher, S. Grimme, WIREs Comput. Mol. Sci., 2020, 11,
     e01493. DOI: 10.1002/wcms.1493
   
   for GFN2-xTB:
   * C. Bannwarth, S. Ehlert and S. Grimme., J. Chem. Theory Comput., 2019,
     15, 1652-1671. DOI: 10.1021/acs.jctc.8b01176
   for GFN1-xTB:
   * S. Grimme, C. Bannwarth, P. Shushkov, J. Chem. Theory Comput., 2017,
     13, 1989-2009. DOI: 10.1021/acs.jctc.7b00118
   for GFN0-xTB:
   * P. Pracht, E. Caldeweyher, S. Ehlert, S. Grimme, ChemRxiv, 2019, preprint.
     DOI: 10.26434/chemrxiv.8326202.v1
   for GFN-FF:
   * S. Spicher and S. Grimme, Angew. Chem. Int. Ed., 2020, 59, 15665-15673.
     DOI: 10.1002/anie.202004239
   
   for ALPB and GBSA implicit solvation:
   * S. Ehlert, M. Stahn, S. Spicher, S. Grimme, J. Chem. Theory Comput.,
     2021, 17, 4250-4261. DOI: 10.1021/acs.jctc.1c00471
   
   for ddCOSMO and CPCM-X implicit solvation:
   * M. Stahn, S. Ehlert, S. Grimme, J. Phys. Chem. A,
     2023, XX, XXXX-XXXX. DOI: 10.1021/acs.jpca.3c04382
   
   for DFT-D4:
   * E. Caldeweyher, C. Bannwarth and S. Grimme, J. Chem. Phys., 2017,
     147, 034112. DOI: 10.1063/1.4993215
   * E. Caldeweyher, S. Ehlert, A. Hansen, H. Neugebauer, S. Spicher,
     C. Bannwarth and S. Grimme, J. Chem. Phys., 2019, 150, 154122.
     DOI: 10.1063/1.5090222
   * E. Caldeweyher, J.-M. Mewes, S. Ehlert and S. Grimme, Phys. Chem. Chem. Phys.
     2020, 22, 8499-8512. DOI: 10.1039/D0CP00502A
   
   for sTDA-xTB:
   * S. Grimme and C. Bannwarth, J. Chem. Phys., 2016, 145, 054103.
     DOI: 10.1063/1.4959605
   
   in the mass-spec context:
   * V. Asgeirsson, C. Bauer and S. Grimme, Chem. Sci., 2017, 8, 4879.
     DOI: 10.1039/c7sc00601b
   * J. Koopman and S. Grimme, ACS Omega 2019, 4, 12, 15120-15133.
     DOI: 10.1021/acsomega.9b02011
   
   for metadynamics refer to:
   * S. Grimme, J. Chem. Theory Comput., 2019, 155, 2847-2862
     DOI: 10.1021/acs.jctc.9b00143
   
   for SPH calculations refer to:
   * S. Spicher and S. Grimme, J. Chem. Theory Comput., 2021, 17, 1701-1714
     DOI: 10.1021/acs.jctc.0c01306
   
   for ONIOM refer to:
   * C. Plett, A. Katbashev, S. Ehlert, S. Grimme, M. Bursch,
     Phys. Chem. Chem. Phys., 2023, 25, 17860-17868. DOI: 10.1039/D3CP02178E
   
   for DIPRO refer to:
   * J. Kohn, N. Gildemeister, S. Grimme, D. Fazzi, A. Hansen,
     J. Chem. Phys., 2023, just accepted.
   
   for PTB refer to:
   * S. Grimme, M. Mueller, A. Hansen, J. Chem. Phys., 2023, 158, 124111.
     DOI: 10.1063/5.0137838
   
   with help from (in alphabetical order)
   P. Atkinson, C. Bannwarth, F. Bohle, G. Brandenburg, E. Caldeweyher
   M. Checinski, S. Dohm, S. Ehlert, S. Ehrlich, I. Gerasimov, C. Hölzer
   A. Katbashev, J. Kohn, J. Koopman, C. Lavigne, S. Lehtola, F. März, M. Müller,
   F. Musil, H. Neugebauer, J. Pisarek, C. Plett, P. Pracht, F. Pultar,
   J. Seibert, P. Shushkov, S. Spicher, M. Stahn, M. Steiner, T. Strunk,
   J. Stückrath, T. Rose, and J. Unsleber
   
 * started run on 2026/07/30 at 19:57:40.271     
   ID    Z sym.   atoms
    1    6 C      1-6, 8, 9, 11, 12
    2    7 N      7, 10
    3   53 I      13
    4    1 H      14-32

           -------------------------------------------------
          |                Calculation Setup                |
           -------------------------------------------------

          program call               : xtb Mol_5.xyz --gfn 2 --sp --alpb acetonitrile
          coordinate file            : Mol_5.xyz
          omp threads                :                    32


           -------------------------------------------------
          |                 G F N 2 - x T B                 |
           -------------------------------------------------

        Reference                      10.1021/acs.jctc.8b01176
      * Hamiltonian:
        H0-scaling (s, p, d)           1.850000    2.230000    2.230000
        zeta-weighting                 0.500000
      * Dispersion:
        s8                             2.700000
        a1                             0.520000
        a2                             5.000000
        s9                             5.000000
      * Repulsion:
        kExp                           1.500000    1.000000
        rExp                           1.000000
      * Coulomb:
        alpha                          2.000000
        third order                    shell-resolved
        anisotropic                    true
        a3                             3.000000
        a5                             4.000000
        cn-shift                       1.200000
        cn-exp                         4.000000
        max-rad                        5.000000

      * Solvation model:               ALPB
        Solvent                        acetonitrile
        Parameter file                 internal GFN2-xTB/ALPB
        Dielectric constant                3.7500E+01
        Reference state                gsolv [1 M gas/solution]
        Free energy shift                  5.1987E-03 Eh       3.2622E+00 kcal/mol
        Temperature                        2.9815E+02 K
        Density                            7.8600E-01 kg/L
        Solvent mass                       4.1050E+01 g/mol
        Interaction kernel             P16
        Born radius scaling (c1)           1.7214E+00
        Born radii integrator          GBOBC
        Born offset                        0.0000E+00 a0       0.0000E+00 AA
        H-bond correction              true
        Ion screening                  false
        Surface tension                    1.0000E-05 Eh       1.5569E+01 dyn/cm
        Grid points                               230 per atom

          ...................................................
          :                      SETUP                      :
          :.................................................:
          :  # basis functions                  77          :
          :  # atomic orbitals                  76          :
          :  # shells                           46          :
          :  # electrons                        76          :
          :  max. iterations                   250          :
          :  Hamiltonian                  GFN2-xTB          :
          :  restarted?                      false          :
          :  GBSA solvation                   true          :
          :  PC potential                    false          :
          :  electronic temp.          300.0000000     K    :
          :  accuracy                    1.0000000          :
          :  -> integral cutoff          0.2500000E+02      :
          :  -> integral neglect         0.1000000E-07      :
          :  -> SCF convergence          0.1000000E-05 Eh   :
          :  -> wf. convergence          0.1000000E-03 e    :
          :  Broyden damping             0.4000000          :
          :  net charge                          0          :
          :  unpaired electrons                  0          :
          ...................................................

 iter      E             dE          RMSdq      gap      omega  full diag
   1    -38.8838119 -0.388838E+02  0.159E+01    1.15       0.0  T
   2    -39.3481085 -0.464297E+00  0.716E+00    1.06       1.0  T
   3    -39.2925758  0.555327E-01  0.709E+00    0.87       1.0  T
   4    -39.6852286 -0.392653E+00  0.298E+00    1.10       1.0  T
   5    -39.7678126 -0.825840E-01  0.317E+00    0.91       1.0  T
   6    -39.8107982 -0.429856E-01  0.181E+00    0.57       1.0  T
   7    -39.8217996 -0.110014E-01  0.954E-01    0.66       1.0  T
   8    -39.8272694 -0.546974E-02  0.541E-01    0.42       1.0  T
   9    -39.8284211 -0.115171E-02  0.296E-01    0.51       1.0  T
  10    -39.8283203  0.100777E-03  0.300E-01    0.45       1.0  T
  11    -39.8295014 -0.118115E-02  0.882E-02    0.45       1.0  T
  12    -39.8295519 -0.504335E-04  0.820E-02    0.44       1.0  T
  13    -39.8296297 -0.778267E-04  0.358E-02    0.44       1.0  T
  14    -39.8296391 -0.935156E-05  0.319E-02    0.43       1.0  T
  15    -39.8296462 -0.713657E-05  0.277E-02    0.43       1.0  T
  16    -39.8296547 -0.855343E-05  0.748E-03    0.43       2.4  T
  17    -39.8296552 -0.458532E-06  0.306E-03    0.43       5.8  T
  18    -39.8296552  0.332069E-08  0.248E-03    0.43       7.1  T
  19    -39.8296552 -0.337378E-07  0.114E-03    0.43      15.5  T
  20    -39.8296552 -0.110717E-09  0.720E-04    0.43      24.6  T
  21    -39.8296552 -0.165313E-08  0.565E-04    0.43      31.3  T

   *** convergence criteria satisfied after 21 iterations ***

         #    Occupation            Energy/Eh            Energy/eV
      -------------------------------------------------------------
         1        2.0000           -0.7215280             -19.6338
       ...           ...                  ...                  ...
        32        2.0000           -0.4052590             -11.0277
        33        2.0000           -0.3803631             -10.3502
        34        2.0000           -0.3596923              -9.7877
        35        2.0000           -0.2845545              -7.7431
        36        2.0000           -0.1946330              -5.2962
        37        2.0000           -0.1653011              -4.4981
        38        1.9995           -0.1070633              -2.9133 (HOMO)
        39        0.0005           -0.0912685              -2.4835 (LUMO)
        40                         -0.0195744              -0.5326
        41                         -0.0019574              -0.0533
        42                          0.0173964               0.4734
        43                          0.0540696               1.4713
       ...                                ...                  ...
        76                          4.5699444             124.3545
      -------------------------------------------------------------
                  HL-Gap            0.0157947 Eh            0.4298 eV
             Fermi-level           -0.0991659 Eh           -2.6984 eV

 SCC (total)                   0 d,  0 h,  0 min,  0.043 sec
 SCC setup                      ...        0 min,  0.001 sec (  1.618%)
 Dispersion                     ...        0 min,  0.000 sec (  1.101%)
 classical contributions        ...        0 min,  0.000 sec (  0.265%)
 integral evaluation            ...        0 min,  0.007 sec ( 15.379%)
 iterations                     ...        0 min,  0.032 sec ( 74.687%)
 molecular gradient             ...        0 min,  0.003 sec (  6.072%)
 printout                       ...        0 min,  0.000 sec (  0.829%)

         :::::::::::::::::::::::::::::::::::::::::::::::::::::
         ::                     SUMMARY                     ::
         :::::::::::::::::::::::::::::::::::::::::::::::::::::
         :: total energy             -37.956120971710 Eh    ::
         :: total w/o Gsasa/hb       -37.938670015629 Eh    ::
         :: gradient norm              3.443513832255 Eh/a0 ::
         :: HOMO-LUMO gap              0.429796785030 eV    ::
         ::.................................................::
         :: SCC energy               -39.829634522440 Eh    ::
         :: -> isotropic ES           -0.062128373445 Eh    ::
         :: -> anisotropic ES         -0.065725321957 Eh    ::
         :: -> anisotropic XC         -0.163506280317 Eh    ::
         :: -> dispersion             -0.035041015550 Eh    ::
         :: -> Gsolv                  -0.034304963418 Eh    ::
         ::    -> Gelec               -0.016854007336 Eh    ::
         ::    -> Gsasa               -0.017375743854 Eh    ::
         ::    -> Ghb                 -0.005273866979 Eh    ::
         ::    -> Gshift               0.005198654751 Eh    ::
         :: repulsion energy           1.873513550730 Eh    ::
         :: add. restraining           0.000000000000 Eh    ::
         :: total charge               0.000000000000 e     ::
         :::::::::::::::::::::::::::::::::::::::::::::::::::::

           -------------------------------------------------
          |                Property Printout                |
           -------------------------------------------------

    * Orbital Energies and Occupations

         #    Occupation            Energy/Eh            Energy/eV
      -------------------------------------------------------------
         1        2.0000           -0.7215280             -19.6338
       ...           ...                  ...                  ...
        26        2.0000           -0.4596985             -12.5090
        27        2.0000           -0.4501253             -12.2485
        28        2.0000           -0.4434009             -12.0656
        29        2.0000           -0.4378363             -11.9141
        30        2.0000           -0.4369706             -11.8906
        31        2.0000           -0.4284322             -11.6582
        32        2.0000           -0.4052590             -11.0277
        33        2.0000           -0.3803631             -10.3502
        34        2.0000           -0.3596923              -9.7877
        35        2.0000           -0.2845545              -7.7431
        36        2.0000           -0.1946330              -5.2962
        37        2.0000           -0.1653011              -4.4981
        38        1.9995           -0.1070633              -2.9133 (HOMO)
        39        0.0005           -0.0912685              -2.4835 (LUMO)
        40                         -0.0195744              -0.5326
        41                         -0.0019574              -0.0533
        42                          0.0173964               0.4734
        43                          0.0540696               1.4713
        44                          0.0718121               1.9541
        45                          0.0778140               2.1174
        46                          0.0920018               2.5035
        47                          0.0977449               2.6598
        48                          0.1163873               3.1671
        49                          0.1289434               3.5087
       ...                                ...                  ...
        76                          4.5699444             124.3545
      -------------------------------------------------------------
                  HL-Gap            0.0157947 Eh            0.4298 eV
             Fermi-level           -0.0991659 Eh           -2.6984 eV

     #   Z          covCN         q      C6AA      α(0)
     1   6 C        3.743    -0.126    22.991     6.840
     2   6 C        3.822    -0.058    21.605     6.615
     3   6 C        4.756    -0.111    22.532     6.741
     4   6 C        4.770     0.068    19.353     6.248
     5   6 C        4.769     0.170    17.807     5.993
     6   6 C        4.701     0.222    17.062     5.866
     7   7 N        3.786     0.232    17.455     6.205
     8   6 C        4.022    -0.041    21.218     6.543
     9   6 C        3.227    -0.127    30.343     8.949
    10   7 N        2.838    -0.064    22.468     7.040
    11   6 C        3.686    -0.255    25.898     7.285
    12   6 C        3.681    -0.047    21.632     6.661
    13  53 I       10.050    -0.718   429.412    35.772
    14   1 H        0.919     0.060     2.197     2.318
    15   1 H        0.922     0.042     2.423     2.434
    16   1 H        0.923     0.030     2.582     2.513
    17   1 H        0.923    -0.010     3.230     2.810
    18   1 H        0.922    -0.018     3.383     2.876
    19   1 H        0.919     0.090     1.884     2.147
    20   1 H        1.708     0.236     0.926     1.502
    21   1 H        0.926    -0.003     3.116     2.760
    22   1 H        1.834     0.409     0.456     1.055
    23   1 H        1.146    -0.042     3.879     3.075
    24   1 H        0.953    -0.118     6.213     3.896
    25   1 H        1.778     0.053     2.271     2.353
    26   1 H        0.961    -0.180     9.377     4.786
    27   1 H        1.680     0.338     0.603     1.212
    28   1 H        0.924     0.036     2.499     2.472
    29   1 H        0.923    -0.154     7.879     4.390
    30   1 H        0.922     0.042     2.423     2.434
    31   1 H        0.921     0.021     2.720     2.579
    32   1 H        0.924     0.020     2.735     2.586

 Mol. C6AA /au·bohr⁶  :      11722.313559
 Mol. C8AA /au·bohr⁸  :     362347.047149
 Mol. α(0) /au        :        166.959191


Wiberg/Mayer (AO) data.
largest (>0.10) Wiberg bond orders for each atom

 ---------------------------------------------------------------------------
     #   Z sym  total        # sym  WBO       # sym  WBO       # sym  WBO
 ---------------------------------------------------------------------------
     1   6 C    3.992 --     2 C    1.004    16 H    0.990    15 H    0.990
                            14 H    0.983
     2   6 C    3.988 --     1 C    1.004    17 H    0.975     3 C    0.961
                            18 H    0.956
     3   6 C    3.882 --     2 C    0.961    19 H    0.935     4 C    0.754
                            20 H    0.564    13 I    0.450
     4   6 C    3.941 --    21 H    0.925    13 I    0.845     5 C    0.777
                             3 C    0.754    22 H    0.393
     5   6 C    3.980 --    23 H    0.957    24 H    0.903     4 C    0.777
                             6 C    0.769    13 I    0.408
     6   6 C    3.934 --    26 H    0.887     5 C    0.769     7 N    0.750
                            25 H    0.663    13 I    0.658
     7   7 N    3.378 --    11 C    0.864    13 I    0.859     6 C    0.750
                             8 C    0.610
     8   6 C    3.733 --     9 C    1.247    13 I    0.870     7 N    0.610
                            27 H    0.585    10 N    0.134
     9   6 C    3.845 --     8 C    1.247    10 N    1.167    28 H    0.966
                            13 I    0.181
    10   7 N    3.456 --     9 C    1.167    12 C    1.011    11 C    0.986
                             8 C    0.134
    11   6 C    3.157 --    10 N    0.986    29 H    0.948     7 N    0.864
    12   6 C    3.988 --    10 N    1.011    31 H    0.985    30 H    0.979
                            32 H    0.975
    13  53 I    5.629 --     8 C    0.870     7 N    0.859     4 C    0.845
                             6 C    0.658     3 C    0.450     5 C    0.408
                            22 H    0.360    20 H    0.287    25 H    0.248
                            27 H    0.202     9 C    0.181
    14   1 H    0.996 --     1 C    0.983
    15   1 H    0.998 --     1 C    0.990
    16   1 H    0.998 --     1 C    0.990
    17   1 H    0.996 --     2 C    0.975
    18   1 H    0.999 --     2 C    0.956
    19   1 H    0.988 --     3 C    0.935
    20   1 H    0.944 --     3 C    0.564    13 I    0.287
    21   1 H    0.992 --     4 C    0.925
    22   1 H    0.832 --     4 C    0.393    13 I    0.360
    23   1 H    0.998 --     5 C    0.957
    24   1 H    0.981 --     5 C    0.903
    25   1 H    0.997 --     6 C    0.663    13 I    0.248
    26   1 H    0.967 --     6 C    0.887
    27   1 H    0.886 --     8 C    0.585    13 I    0.202
    28   1 H    0.998 --     9 C    0.966
    29   1 H    0.976 --    11 C    0.948
    30   1 H    0.997 --    12 C    0.979
    31   1 H    0.999 --    12 C    0.985
    32   1 H    0.994 --    12 C    0.975
 ---------------------------------------------------------------------------

Topologies differ in total number of bonds
Writing topology from bond orders to xtbtopo.mol

molecular dipole:
                 x           y           z       tot (Debye)
 q only:        2.295      -1.800       2.477
   full:        3.281       2.735      -1.810      11.790
molecular quadrupole (traceless):
                xx          xy          yy          xz          yz          zz
 q only:      -12.165      -0.459       7.721      -3.841       4.810       4.444
  q+dip:      -16.862      -2.675       7.666      -3.747       3.623       9.196
   full:      -13.654       1.522       6.793      -1.145       1.342       6.861


           -------------------------------------------------
          | TOTAL ENERGY              -37.956120971710 Eh   |
          | GRADIENT NORM               3.443513832255 Eh/α |
          | HOMO-LUMO GAP               0.429796785030 eV   |
           -------------------------------------------------

------------------------------------------------------------------------
 * finished run on 2026/07/30 at 19:57:40.338     
------------------------------------------------------------------------
 total:
 * wall-time:     0 d,  0 h,  0 min,  0.067 sec
 *  cpu-time:     0 d,  0 h,  0 min,  0.141 sec
 * ratio c/w:     2.100 speedup
 SCF:
 * wall-time:     0 d,  0 h,  0 min,  0.043 sec
 *  cpu-time:     0 d,  0 h,  0 min,  0.109 sec
 * ratio c/w:     2.520 speedup

