16
Mol_11
C 2.124412 0.287817 -0.016295
N 0.682221 0.239791 0.021620
C -0.022466 -0.650039 0.906240
C -1.473071 -0.273262 0.683062
C -1.515941 0.135906 -0.784810
C -0.113282 0.630337 -1.048762
O 0.248295 1.219229 -2.053866
H 2.503253 0.473841 0.991924
H 2.499390 -0.671197 -0.384726
H 2.460085 1.082615 -0.687917
H 0.177380 -1.682219 0.599005
H 0.295587 -0.497996 1.941244
H -2.166066 -1.085103 0.920552
H -1.735196 0.588629 1.309520
H -2.250155 0.924860 -0.963980
H -1.714447 -0.723210 -1.432811
