      -----------------------------------------------------------      
     |                   =====================                   |     
     |                           x T B                           |     
     |                   =====================                   |     
     |                         S. Grimme                         |     
     |          Mulliken Center for Theoretical Chemistry        |     
     |                    University of Bonn                     |     
      -----------------------------------------------------------      

   * xtb version 6.7.1 (edcfbbe) compiled by 'VssAdministrator@runnervmowedg' on 2025-09-04

   xtb is free software: you can redistribute it and/or modify it under
   the terms of the GNU Lesser General Public License as published by
   the Free Software Foundation, either version 3 of the License, or
   (at your option) any later version.
   
   xtb is distributed in the hope that it will be useful,
   but WITHOUT ANY WARRANTY; without even the implied warranty of
   MERCHANTABILITY or FITNESS FOR A PARTICULAR PURPOSE.  See the
   GNU Lesser General Public License for more details.
   
   Cite this work as:
   * C. Bannwarth, E. Caldeweyher, S. Ehlert, A. Hansen, P. Pracht,
     J. Seibert, S. Spicher, S. Grimme, WIREs Comput. Mol. Sci., 2020, 11,
     e01493. DOI: 10.1002/wcms.1493
   
   for GFN2-xTB:
   * C. Bannwarth, S. Ehlert and S. Grimme., J. Chem. Theory Comput., 2019,
     15, 1652-1671. DOI: 10.1021/acs.jctc.8b01176
   for GFN1-xTB:
   * S. Grimme, C. Bannwarth, P. Shushkov, J. Chem. Theory Comput., 2017,
     13, 1989-2009. DOI: 10.1021/acs.jctc.7b00118
   for GFN0-xTB:
   * P. Pracht, E. Caldeweyher, S. Ehlert, S. Grimme, ChemRxiv, 2019, preprint.
     DOI: 10.26434/chemrxiv.8326202.v1
   for GFN-FF:
   * S. Spicher and S. Grimme, Angew. Chem. Int. Ed., 2020, 59, 15665-15673.
     DOI: 10.1002/anie.202004239
   
   for ALPB and GBSA implicit solvation:
   * S. Ehlert, M. Stahn, S. Spicher, S. Grimme, J. Chem. Theory Comput.,
     2021, 17, 4250-4261. DOI: 10.1021/acs.jctc.1c00471
   
   for ddCOSMO and CPCM-X implicit solvation:
   * M. Stahn, S. Ehlert, S. Grimme, J. Phys. Chem. A,
     2023, XX, XXXX-XXXX. DOI: 10.1021/acs.jpca.3c04382
   
   for DFT-D4:
   * E. Caldeweyher, C. Bannwarth and S. Grimme, J. Chem. Phys., 2017,
     147, 034112. DOI: 10.1063/1.4993215
   * E. Caldeweyher, S. Ehlert, A. Hansen, H. Neugebauer, S. Spicher,
     C. Bannwarth and S. Grimme, J. Chem. Phys., 2019, 150, 154122.
     DOI: 10.1063/1.5090222
   * E. Caldeweyher, J.-M. Mewes, S. Ehlert and S. Grimme, Phys. Chem. Chem. Phys.
     2020, 22, 8499-8512. DOI: 10.1039/D0CP00502A
   
   for sTDA-xTB:
   * S. Grimme and C. Bannwarth, J. Chem. Phys., 2016, 145, 054103.
     DOI: 10.1063/1.4959605
   
   in the mass-spec context:
   * V. Asgeirsson, C. Bauer and S. Grimme, Chem. Sci., 2017, 8, 4879.
     DOI: 10.1039/c7sc00601b
   * J. Koopman and S. Grimme, ACS Omega 2019, 4, 12, 15120-15133.
     DOI: 10.1021/acsomega.9b02011
   
   for metadynamics refer to:
   * S. Grimme, J. Chem. Theory Comput., 2019, 155, 2847-2862
     DOI: 10.1021/acs.jctc.9b00143
   
   for SPH calculations refer to:
   * S. Spicher and S. Grimme, J. Chem. Theory Comput., 2021, 17, 1701-1714
     DOI: 10.1021/acs.jctc.0c01306
   
   for ONIOM refer to:
   * C. Plett, A. Katbashev, S. Ehlert, S. Grimme, M. Bursch,
     Phys. Chem. Chem. Phys., 2023, 25, 17860-17868. DOI: 10.1039/D3CP02178E
   
   for DIPRO refer to:
   * J. Kohn, N. Gildemeister, S. Grimme, D. Fazzi, A. Hansen,
     J. Chem. Phys., 2023, just accepted.
   
   for PTB refer to:
   * S. Grimme, M. Mueller, A. Hansen, J. Chem. Phys., 2023, 158, 124111.
     DOI: 10.1063/5.0137838
   
   with help from (in alphabetical order)
   P. Atkinson, C. Bannwarth, F. Bohle, G. Brandenburg, E. Caldeweyher
   M. Checinski, S. Dohm, S. Ehlert, S. Ehrlich, I. Gerasimov, C. Hölzer
   A. Katbashev, J. Kohn, J. Koopman, C. Lavigne, S. Lehtola, F. März, M. Müller,
   F. Musil, H. Neugebauer, J. Pisarek, C. Plett, P. Pracht, F. Pultar,
   J. Seibert, P. Shushkov, S. Spicher, M. Stahn, M. Steiner, T. Strunk,
   J. Stückrath, T. Rose, and J. Unsleber
   
 * started run on 2026/07/30 at 19:57:25.530     
   ID    Z sym.   atoms
    1    6 C      1, 3-6
    2    7 N      2
    3    8 O      7
    4    1 H      8-16

           -------------------------------------------------
          |                Calculation Setup                |
           -------------------------------------------------

          program call               : xtb Mol_11.xyz --gfn 2 --sp --alpb acetonitrile
          coordinate file            : Mol_11.xyz
          omp threads                :                    32


           -------------------------------------------------
          |                 G F N 2 - x T B                 |
           -------------------------------------------------

        Reference                      10.1021/acs.jctc.8b01176
      * Hamiltonian:
        H0-scaling (s, p, d)           1.850000    2.230000    2.230000
        zeta-weighting                 0.500000
      * Dispersion:
        s8                             2.700000
        a1                             0.520000
        a2                             5.000000
        s9                             5.000000
      * Repulsion:
        kExp                           1.500000    1.000000
        rExp                           1.000000
      * Coulomb:
        alpha                          2.000000
        third order                    shell-resolved
        anisotropic                    true
        a3                             3.000000
        a5                             4.000000
        cn-shift                       1.200000
        cn-exp                         4.000000
        max-rad                        5.000000

      * Solvation model:               ALPB
        Solvent                        acetonitrile
        Parameter file                 internal GFN2-xTB/ALPB
        Dielectric constant                3.7500E+01
        Reference state                gsolv [1 M gas/solution]
        Free energy shift                  5.1987E-03 Eh       3.2622E+00 kcal/mol
        Temperature                        2.9815E+02 K
        Density                            7.8600E-01 kg/L
        Solvent mass                       4.1050E+01 g/mol
        Interaction kernel             P16
        Born radius scaling (c1)           1.7214E+00
        Born radii integrator          GBOBC
        Born offset                        0.0000E+00 a0       0.0000E+00 AA
        H-bond correction              true
        Ion screening                  false
        Surface tension                    1.0000E-05 Eh       1.5569E+01 dyn/cm
        Grid points                               230 per atom

          ...................................................
          :                      SETUP                      :
          :.................................................:
          :  # basis functions                  37          :
          :  # atomic orbitals                  37          :
          :  # shells                           23          :
          :  # electrons                        40          :
          :  max. iterations                   250          :
          :  Hamiltonian                  GFN2-xTB          :
          :  restarted?                      false          :
          :  GBSA solvation                   true          :
          :  PC potential                    false          :
          :  electronic temp.          300.0000000     K    :
          :  accuracy                    1.0000000          :
          :  -> integral cutoff          0.2500000E+02      :
          :  -> integral neglect         0.1000000E-07      :
          :  -> SCF convergence          0.1000000E-05 Eh   :
          :  -> wf. convergence          0.1000000E-03 e    :
          :  Broyden damping             0.4000000          :
          :  net charge                          0          :
          :  unpaired electrons                  0          :
          ...................................................

 iter      E             dE          RMSdq      gap      omega  full diag
   1    -22.5262164 -0.225262E+02  0.372E+00    4.47       0.0  T
   2    -22.5875344 -0.613181E-01  0.211E+00    4.73       1.0  T
   3    -22.5891098 -0.157534E-02  0.105E+00    4.64       1.0  T
   4    -22.5894529 -0.343135E-03  0.114E-01    4.63       1.0  T
   5    -22.5894833 -0.303403E-04  0.654E-02    4.65       1.0  T
   6    -22.5894880 -0.468947E-05  0.328E-02    4.63       1.0  T
   7    -22.5894913 -0.330532E-05  0.575E-03    4.64       4.3  T
   8    -22.5894913 -0.535910E-07  0.314E-03    4.64       8.0  T
   9    -22.5894913 -0.837677E-08  0.739E-04    4.64      33.8  T
  10    -22.5894913 -0.290634E-08  0.261E-04    4.64      95.9  T

   *** convergence criteria satisfied after 10 iterations ***

         #    Occupation            Energy/Eh            Energy/eV
      -------------------------------------------------------------
         1        2.0000           -0.6965019             -18.9528
       ...           ...                  ...                  ...
        14        2.0000           -0.4810788             -13.0908
        15        2.0000           -0.4761320             -12.9562
        16        2.0000           -0.4711546             -12.8208
        17        2.0000           -0.4604447             -12.5293
        18        2.0000           -0.4438335             -12.0773
        19        2.0000           -0.3971519             -10.8071
        20        2.0000           -0.3831414             -10.4258 (HOMO)
        21                         -0.2126301              -5.7860 (LUMO)
        22                          0.0011924               0.0324
        23                          0.0564716               1.5367
        24                          0.0824742               2.2442
        25                          0.1081918               2.9440
       ...                                ...                  ...
        37                          0.6292508              17.1228
      -------------------------------------------------------------
                  HL-Gap            0.1705113 Eh            4.6398 eV
             Fermi-level           -0.2978858 Eh           -8.1059 eV

 SCC (total)                   0 d,  0 h,  0 min,  0.018 sec
 SCC setup                      ...        0 min,  0.000 sec (  2.715%)
 Dispersion                     ...        0 min,  0.000 sec (  1.454%)
 classical contributions        ...        0 min,  0.000 sec (  0.536%)
 integral evaluation            ...        0 min,  0.000 sec (  2.155%)
 iterations                     ...        0 min,  0.015 sec ( 84.417%)
 molecular gradient             ...        0 min,  0.001 sec (  7.333%)
 printout                       ...        0 min,  0.000 sec (  1.310%)

         :::::::::::::::::::::::::::::::::::::::::::::::::::::
         ::                     SUMMARY                     ::
         :::::::::::::::::::::::::::::::::::::::::::::::::::::
         :: total energy             -22.322732915089 Eh    ::
         :: total w/o Gsasa/hb       -22.315505746055 Eh    ::
         :: gradient norm              0.253054717509 Eh/a0 ::
         :: HOMO-LUMO gap              4.639849281472 eV    ::
         ::.................................................::
         :: SCC energy               -22.589467025796 Eh    ::
         :: -> isotropic ES            0.046110851918 Eh    ::
         :: -> anisotropic ES          0.002207573436 Eh    ::
         :: -> anisotropic XC          0.009173768495 Eh    ::
         :: -> dispersion             -0.010095302563 Eh    ::
         :: -> Gsolv                  -0.013835886946 Eh    ::
         ::    -> Gelec               -0.006608717912 Eh    ::
         ::    -> Gsasa               -0.011803096361 Eh    ::
         ::    -> Ghb                 -0.000622727424 Eh    ::
         ::    -> Gshift               0.005198654751 Eh    ::
         :: repulsion energy           0.266734110707 Eh    ::
         :: add. restraining           0.000000000000 Eh    ::
         :: total charge              -0.000000000000 e     ::
         :::::::::::::::::::::::::::::::::::::::::::::::::::::

           -------------------------------------------------
          |                Property Printout                |
           -------------------------------------------------

    * Orbital Energies and Occupations

         #    Occupation            Energy/Eh            Energy/eV
      -------------------------------------------------------------
         1        2.0000           -0.6965019             -18.9528
       ...           ...                  ...                  ...
         8        2.0000           -0.5578206             -15.1791
         9        2.0000           -0.5420276             -14.7493
        10        2.0000           -0.5258056             -14.3079
        11        2.0000           -0.5132227             -13.9655
        12        2.0000           -0.5066429             -13.7865
        13        2.0000           -0.4960954             -13.4994
        14        2.0000           -0.4810788             -13.0908
        15        2.0000           -0.4761320             -12.9562
        16        2.0000           -0.4711546             -12.8208
        17        2.0000           -0.4604447             -12.5293
        18        2.0000           -0.4438335             -12.0773
        19        2.0000           -0.3971519             -10.8071
        20        2.0000           -0.3831414             -10.4258 (HOMO)
        21                         -0.2126301              -5.7860 (LUMO)
        22                          0.0011924               0.0324
        23                          0.0564716               1.5367
        24                          0.0824742               2.2442
        25                          0.1081918               2.9440
        26                          0.1291248               3.5137
        27                          0.1298622               3.5337
        28                          0.1462133               3.9787
        29                          0.1662006               4.5225
        30                          0.1913457               5.2068
        31                          0.2086032               5.6764
       ...                                ...                  ...
        37                          0.6292508              17.1228
      -------------------------------------------------------------
                  HL-Gap            0.1705113 Eh            4.6398 eV
             Fermi-level           -0.2978858 Eh           -8.1059 eV

     #   Z          covCN         q      C6AA      α(0)
     1   6 C        3.688    -0.048    21.629     6.657
     2   7 N        2.761    -0.108    23.359     7.178
     3   6 C        3.789    -0.003    20.650     6.472
     4   6 C        3.841    -0.069    21.794     6.641
     5   6 C        3.833    -0.093    22.240     6.710
     6   6 C        2.803     0.267    22.490     7.769
     7   8 O        0.856    -0.481    23.366     6.481
     8   1 H        0.924     0.064     2.156     2.296
     9   1 H        0.924     0.051     2.310     2.377
    10   1 H        0.924     0.070     2.085     2.258
    11   1 H        0.924     0.047     2.355     2.400
    12   1 H        0.924     0.060     2.194     2.316
    13   1 H        0.924     0.058     2.228     2.335
    14   1 H        0.924     0.053     2.283     2.363
    15   1 H        0.924     0.064     2.154     2.295
    16   1 H        0.924     0.068     2.113     2.273

 Mol. C6AA /au·bohr⁶  :       2140.051324
 Mol. C8AA /au·bohr⁸  :      46615.647273
 Mol. α(0) /au        :         68.820457


Wiberg/Mayer (AO) data.
largest (>0.10) Wiberg bond orders for each atom

 ---------------------------------------------------------------------------
     #   Z sym  total        # sym  WBO       # sym  WBO       # sym  WBO
 ---------------------------------------------------------------------------
     1   6 C    3.969 --     2 N    1.001    10 H    0.979     8 H    0.979
                             9 H    0.974
     2   7 N    3.472 --     6 C    1.228     1 C    1.001     3 C    0.989
                             7 O    0.194
     3   6 C    3.972 --     4 C    1.005     2 N    0.989    12 H    0.971
                            11 H    0.965
     4   6 C    3.994 --     5 C    1.006     3 C    1.005    14 H    0.979
                            13 H    0.977
     5   6 C    3.997 --     4 C    1.006     6 C    0.974    15 H    0.967
                            16 H    0.954
     6   6 C    3.946 --     7 O    1.669     2 N    1.228     5 C    0.974
     7   8 O    1.980 --     6 C    1.669     2 N    0.194
     8   1 H    0.996 --     1 C    0.979
     9   1 H    0.997 --     1 C    0.974
    10   1 H    0.995 --     1 C    0.979
    11   1 H    0.998 --     3 C    0.965
    12   1 H    0.996 --     3 C    0.971
    13   1 H    0.996 --     4 C    0.977
    14   1 H    0.997 --     4 C    0.979
    15   1 H    0.996 --     5 C    0.967
    16   1 H    0.995 --     5 C    0.954
 ---------------------------------------------------------------------------

Topologies differ in total number of bonds
Writing topology from bond orders to xtbtopo.mol

molecular dipole:
                 x           y           z       tot (Debye)
 q only:       -0.138      -0.959       1.574
   full:       -0.147      -1.085       1.630       4.990
molecular quadrupole (traceless):
                xx          xy          yy          xz          yz          zz
 q only:        7.520      -0.186      -1.195       1.803       4.998      -6.325
  q+dip:        6.995      -0.780       0.190       2.495       6.998      -7.185
   full:        7.299      -0.817       0.001       2.259       6.830      -7.300


           -------------------------------------------------
          | TOTAL ENERGY              -22.322732915089 Eh   |
          | GRADIENT NORM               0.253054717509 Eh/α |
          | HOMO-LUMO GAP               4.639849281472 eV   |
           -------------------------------------------------

------------------------------------------------------------------------
 * finished run on 2026/07/30 at 19:57:25.568     
------------------------------------------------------------------------
 total:
 * wall-time:     0 d,  0 h,  0 min,  0.037 sec
 *  cpu-time:     0 d,  0 h,  0 min,  0.031 sec
 * ratio c/w:     0.840 speedup
 SCF:
 * wall-time:     0 d,  0 h,  0 min,  0.018 sec
 *  cpu-time:     0 d,  0 h,  0 min,  0.000 sec
 * ratio c/w:     0.000 speedup

