      -----------------------------------------------------------      
     |                   =====================                   |     
     |                           x T B                           |     
     |                   =====================                   |     
     |                         S. Grimme                         |     
     |          Mulliken Center for Theoretical Chemistry        |     
     |                    University of Bonn                     |     
      -----------------------------------------------------------      

   * xtb version 6.7.1 (edcfbbe) compiled by 'VssAdministrator@runnervmowedg' on 2025-09-04

   xtb is free software: you can redistribute it and/or modify it under
   the terms of the GNU Lesser General Public License as published by
   the Free Software Foundation, either version 3 of the License, or
   (at your option) any later version.
   
   xtb is distributed in the hope that it will be useful,
   but WITHOUT ANY WARRANTY; without even the implied warranty of
   MERCHANTABILITY or FITNESS FOR A PARTICULAR PURPOSE.  See the
   GNU Lesser General Public License for more details.
   
   Cite this work as:
   * C. Bannwarth, E. Caldeweyher, S. Ehlert, A. Hansen, P. Pracht,
     J. Seibert, S. Spicher, S. Grimme, WIREs Comput. Mol. Sci., 2020, 11,
     e01493. DOI: 10.1002/wcms.1493
   
   for GFN2-xTB:
   * C. Bannwarth, S. Ehlert and S. Grimme., J. Chem. Theory Comput., 2019,
     15, 1652-1671. DOI: 10.1021/acs.jctc.8b01176
   for GFN1-xTB:
   * S. Grimme, C. Bannwarth, P. Shushkov, J. Chem. Theory Comput., 2017,
     13, 1989-2009. DOI: 10.1021/acs.jctc.7b00118
   for GFN0-xTB:
   * P. Pracht, E. Caldeweyher, S. Ehlert, S. Grimme, ChemRxiv, 2019, preprint.
     DOI: 10.26434/chemrxiv.8326202.v1
   for GFN-FF:
   * S. Spicher and S. Grimme, Angew. Chem. Int. Ed., 2020, 59, 15665-15673.
     DOI: 10.1002/anie.202004239
   
   for ALPB and GBSA implicit solvation:
   * S. Ehlert, M. Stahn, S. Spicher, S. Grimme, J. Chem. Theory Comput.,
     2021, 17, 4250-4261. DOI: 10.1021/acs.jctc.1c00471
   
   for ddCOSMO and CPCM-X implicit solvation:
   * M. Stahn, S. Ehlert, S. Grimme, J. Phys. Chem. A,
     2023, XX, XXXX-XXXX. DOI: 10.1021/acs.jpca.3c04382
   
   for DFT-D4:
   * E. Caldeweyher, C. Bannwarth and S. Grimme, J. Chem. Phys., 2017,
     147, 034112. DOI: 10.1063/1.4993215
   * E. Caldeweyher, S. Ehlert, A. Hansen, H. Neugebauer, S. Spicher,
     C. Bannwarth and S. Grimme, J. Chem. Phys., 2019, 150, 154122.
     DOI: 10.1063/1.5090222
   * E. Caldeweyher, J.-M. Mewes, S. Ehlert and S. Grimme, Phys. Chem. Chem. Phys.
     2020, 22, 8499-8512. DOI: 10.1039/D0CP00502A
   
   for sTDA-xTB:
   * S. Grimme and C. Bannwarth, J. Chem. Phys., 2016, 145, 054103.
     DOI: 10.1063/1.4959605
   
   in the mass-spec context:
   * V. Asgeirsson, C. Bauer and S. Grimme, Chem. Sci., 2017, 8, 4879.
     DOI: 10.1039/c7sc00601b
   * J. Koopman and S. Grimme, ACS Omega 2019, 4, 12, 15120-15133.
     DOI: 10.1021/acsomega.9b02011
   
   for metadynamics refer to:
   * S. Grimme, J. Chem. Theory Comput., 2019, 155, 2847-2862
     DOI: 10.1021/acs.jctc.9b00143
   
   for SPH calculations refer to:
   * S. Spicher and S. Grimme, J. Chem. Theory Comput., 2021, 17, 1701-1714
     DOI: 10.1021/acs.jctc.0c01306
   
   for ONIOM refer to:
   * C. Plett, A. Katbashev, S. Ehlert, S. Grimme, M. Bursch,
     Phys. Chem. Chem. Phys., 2023, 25, 17860-17868. DOI: 10.1039/D3CP02178E
   
   for DIPRO refer to:
   * J. Kohn, N. Gildemeister, S. Grimme, D. Fazzi, A. Hansen,
     J. Chem. Phys., 2023, just accepted.
   
   for PTB refer to:
   * S. Grimme, M. Mueller, A. Hansen, J. Chem. Phys., 2023, 158, 124111.
     DOI: 10.1063/5.0137838
   
   with help from (in alphabetical order)
   P. Atkinson, C. Bannwarth, F. Bohle, G. Brandenburg, E. Caldeweyher
   M. Checinski, S. Dohm, S. Ehlert, S. Ehrlich, I. Gerasimov, C. Hölzer
   A. Katbashev, J. Kohn, J. Koopman, C. Lavigne, S. Lehtola, F. März, M. Müller,
   F. Musil, H. Neugebauer, J. Pisarek, C. Plett, P. Pracht, F. Pultar,
   J. Seibert, P. Shushkov, S. Spicher, M. Stahn, M. Steiner, T. Strunk,
   J. Stückrath, T. Rose, and J. Unsleber
   
 * started run on 2026/07/30 at 19:57:34.887     
   ID    Z sym.   atoms
    1    6 C      1
    2    7 N      2-4
    3   53 I      5
    4    1 H      6-11

           -------------------------------------------------
          |                Calculation Setup                |
           -------------------------------------------------

          program call               : xtb Mol_19.xyz --gfn 2 --sp --alpb acetonitrile
          coordinate file            : Mol_19.xyz
          omp threads                :                    32


           -------------------------------------------------
          |                 G F N 2 - x T B                 |
           -------------------------------------------------

        Reference                      10.1021/acs.jctc.8b01176
      * Hamiltonian:
        H0-scaling (s, p, d)           1.850000    2.230000    2.230000
        zeta-weighting                 0.500000
      * Dispersion:
        s8                             2.700000
        a1                             0.520000
        a2                             5.000000
        s9                             5.000000
      * Repulsion:
        kExp                           1.500000    1.000000
        rExp                           1.000000
      * Coulomb:
        alpha                          2.000000
        third order                    shell-resolved
        anisotropic                    true
        a3                             3.000000
        a5                             4.000000
        cn-shift                       1.200000
        cn-exp                         4.000000
        max-rad                        5.000000

      * Solvation model:               ALPB
        Solvent                        acetonitrile
        Parameter file                 internal GFN2-xTB/ALPB
        Dielectric constant                3.7500E+01
        Reference state                gsolv [1 M gas/solution]
        Free energy shift                  5.1987E-03 Eh       3.2622E+00 kcal/mol
        Temperature                        2.9815E+02 K
        Density                            7.8600E-01 kg/L
        Solvent mass                       4.1050E+01 g/mol
        Interaction kernel             P16
        Born radius scaling (c1)           1.7214E+00
        Born radii integrator          GBOBC
        Born offset                        0.0000E+00 a0       0.0000E+00 AA
        H-bond correction              true
        Ion screening                  false
        Surface tension                    1.0000E-05 Eh       1.5569E+01 dyn/cm
        Grid points                               230 per atom

          ...................................................
          :                      SETUP                      :
          :.................................................:
          :  # basis functions                  32          :
          :  # atomic orbitals                  31          :
          :  # shells                           17          :
          :  # electrons                        32          :
          :  max. iterations                   250          :
          :  Hamiltonian                  GFN2-xTB          :
          :  restarted?                      false          :
          :  GBSA solvation                   true          :
          :  PC potential                    false          :
          :  electronic temp.          300.0000000     K    :
          :  accuracy                    1.0000000          :
          :  -> integral cutoff          0.2500000E+02      :
          :  -> integral neglect         0.1000000E-07      :
          :  -> SCF convergence          0.1000000E-05 Eh   :
          :  -> wf. convergence          0.1000000E-03 e    :
          :  Broyden damping             0.4000000          :
          :  net charge                          0          :
          :  unpaired electrons                  0          :
          ...................................................

 iter      E             dE          RMSdq      gap      omega  full diag
   1    -16.3050796 -0.163051E+02  0.418E+01    1.50       0.0  T
   2    -16.0859551  0.219124E+00  0.874E+00    1.41       1.0  T
   3    -16.4341857 -0.348231E+00  0.185E+01    1.63       1.0  T
   4    -16.7357384 -0.301553E+00  0.143E+01    1.89       1.0  T
   5    -16.7742850 -0.385465E-01  0.139E+01    1.96       1.0  T
   6    -16.6190610  0.155224E+00  0.146E+01    1.68       1.0  T
   7    -21.0189725 -0.439991E+01  0.245E+01    1.93       1.0  T
   8    -20.9192574  0.997151E-01  0.241E+01    1.94       1.0  T
   9    -20.5565648  0.362693E+00  0.239E+01    1.83       1.0  T
  10    -21.2540161 -0.697451E+00  0.230E+01    2.02       1.0  T
  11    -22.1434223 -0.889406E+00  0.181E+01    2.41       1.0  T
  12    -22.5594881 -0.416066E+00  0.161E+01    2.22       1.0  T
  13    -22.6055329 -0.460448E-01  0.166E+01    2.13       1.0  T
  14    -22.6722995 -0.667667E-01  0.746E+00    2.41       1.0  T
  15    -22.8386448 -0.166345E+00  0.298E+00    2.22       1.0  T
  16    -22.8337734  0.487145E-02  0.212E+00    2.38       1.0  T
  17    -22.8417675 -0.799414E-02  0.113E+00    2.26       1.0  T
  18    -22.8430629 -0.129537E-02  0.766E-01    2.27       1.0  T
  19    -22.8357681  0.729483E-02  0.219E+00    2.30       1.0  T
  20    -22.8418760 -0.610794E-02  0.996E-01    2.34       1.0  T
  21    -22.8430756 -0.119959E-02  0.660E-01    2.36       1.0  T
  22    -22.8432801 -0.204450E-03  0.242E-01    2.34       1.0  T
  23    -22.8432899 -0.985693E-05  0.694E-02    2.32       1.0  T
  24    -22.8432911 -0.117408E-05  0.892E-03    2.32       3.4  T
  25    -22.8432909  0.146766E-06  0.107E-02    2.32       2.8  T
  26    -22.8432911 -0.189102E-06  0.372E-03    2.32       8.1  T
  27    -22.8432911  0.206827E-08  0.149E-03    2.32      20.2  T
  28    -22.8432911  0.626446E-09  0.129E-03    2.32      23.4  T
  29    -22.8432911 -0.352925E-08  0.236E-04    2.32     127.5  T
  30    -22.8432911 -0.815099E-10  0.607E-05    2.32     496.3  T

   *** convergence criteria satisfied after 30 iterations ***

         #    Occupation            Energy/Eh            Energy/eV
      -------------------------------------------------------------
         1        2.0000           -3.6995092            -100.6688
       ...           ...                  ...                  ...
        10        2.0000           -0.3395781              -9.2404
        11        2.0000           -0.2812409              -7.6530
        12        2.0000           -0.2600952              -7.0775
        13        2.0000           -0.2210183              -6.0142
        14        2.0000           -0.1415380              -3.8514
        15        2.0000           -0.1177164              -3.2032
        16        2.0000           -0.0734001              -1.9973 (HOMO)
        17                          0.0119198               0.3244 (LUMO)
        18                          0.1722822               4.6880
        19                          0.2283261               6.2131
        20                          0.2370292               6.4499
        21                          0.3975079              10.8167
       ...                                ...                  ...
        31                          5.7384324             156.1507
      -------------------------------------------------------------
                  HL-Gap            0.0853199 Eh            2.3217 eV
             Fermi-level           -0.0307402 Eh           -0.8365 eV

 SCC (total)                   0 d,  0 h,  0 min,  0.038 sec
 SCC setup                      ...        0 min,  0.001 sec (  1.742%)
 Dispersion                     ...        0 min,  0.000 sec (  0.763%)
 classical contributions        ...        0 min,  0.000 sec (  0.323%)
 integral evaluation            ...        0 min,  0.009 sec ( 23.271%)
 iterations                     ...        0 min,  0.026 sec ( 68.131%)
 molecular gradient             ...        0 min,  0.002 sec (  5.010%)
 printout                       ...        0 min,  0.000 sec (  0.708%)

         :::::::::::::::::::::::::::::::::::::::::::::::::::::
         ::                     SUMMARY                     ::
         :::::::::::::::::::::::::::::::::::::::::::::::::::::
         :: total energy             113.144769470555 Eh    ::
         :: total w/o Gsasa/hb       113.166070163744 Eh    ::
         :: gradient norm            529.134074191410 Eh/a0 ::
         :: HOMO-LUMO gap              2.321673103696 eV    ::
         ::.................................................::
         :: SCC energy               -22.843288636617 Eh    ::
         :: -> isotropic ES          -12.789899962220 Eh    ::
         :: -> anisotropic ES         -0.034160328618 Eh    ::
         :: -> anisotropic XC         -0.104073727461 Eh    ::
         :: -> dispersion             -0.009221480099 Eh    ::
         :: -> Gsolv                  -0.052082012324 Eh    ::
         ::    -> Gelec               -0.030781319135 Eh    ::
         ::    -> Gsasa               -0.011019595741 Eh    ::
         ::    -> Ghb                 -0.015479752200 Eh    ::
         ::    -> Gshift               0.005198654751 Eh    ::
         :: repulsion energy         135.988058107172 Eh    ::
         :: add. restraining           0.000000000000 Eh    ::
         :: total charge              -0.000000000000 e     ::
         :::::::::::::::::::::::::::::::::::::::::::::::::::::

           -------------------------------------------------
          |                Property Printout                |
           -------------------------------------------------

    * Orbital Energies and Occupations

         #    Occupation            Energy/Eh            Energy/eV
      -------------------------------------------------------------
         1        2.0000           -3.6995092            -100.6688
       ...           ...                  ...                  ...
         4        2.0000           -3.2023828             -87.1413
         5        2.0000           -3.1339092             -85.2780
         6        2.0000           -0.5195777             -14.1384
         7        2.0000           -0.4618090             -12.5665
         8        2.0000           -0.4337825             -11.8038
         9        2.0000           -0.3823918             -10.4054
        10        2.0000           -0.3395781              -9.2404
        11        2.0000           -0.2812409              -7.6530
        12        2.0000           -0.2600952              -7.0775
        13        2.0000           -0.2210183              -6.0142
        14        2.0000           -0.1415380              -3.8514
        15        2.0000           -0.1177164              -3.2032
        16        2.0000           -0.0734001              -1.9973 (HOMO)
        17                          0.0119198               0.3244 (LUMO)
        18                          0.1722822               4.6880
        19                          0.2283261               6.2131
        20                          0.2370292               6.4499
        21                          0.3975079              10.8167
        22                          0.4886058              13.2956
        23                          0.6126323              16.6706
        24                          0.7733698              21.0445
        25                          0.9792888              26.6478
        26                          1.2547784              34.1443
        27                          1.4057035              38.2511
       ...                                ...                  ...
        31                          5.7384324             156.1507
      -------------------------------------------------------------
                  HL-Gap            0.0853199 Eh            2.3217 eV
             Fermi-level           -0.0307402 Eh           -0.8365 eV

     #   Z          covCN         q      C6AA      α(0)
     1   6 C        4.623     1.595     6.433     3.602
     2   7 N        2.833    -0.710    40.594     9.463
     3   7 N        3.553     4.674     1.121     1.573
     4   7 N        4.410    -0.171    24.679     7.378
     5  53 I        6.742    -7.619  2279.732    82.423
     6   1 H        1.128     0.285     0.749     1.352
     7   1 H        1.772     0.763     0.146     0.598
     8   1 H        1.771     0.474     0.360     0.937
     9   1 H        0.858    -0.015     3.357     2.870
    10   1 H        0.865     0.174     1.248     1.750
    11   1 H        2.829     0.550     0.278     0.824

 Mol. C6AA /au·bohr⁶  :       4602.055242
 Mol. C8AA /au·bohr⁸  :     299285.707531
 Mol. α(0) /au        :        112.767855


Wiberg/Mayer (AO) data.
largest (>0.10) Wiberg bond orders for each atom

 ---------------------------------------------------------------------------
     #   Z sym  total        # sym  WBO       # sym  WBO       # sym  WBO
 ---------------------------------------------------------------------------
     1   6 C    2.052 --     2 N    0.420     3 N    0.399     8 H    0.362
                             7 H    0.347     5 I    0.215     4 N    0.177
     2   7 N    2.254 --     6 H    0.676     5 I    0.485     1 C    0.420
                             4 N    0.239     3 N    0.163
     3   7 N    0.559 --     1 C    0.399     2 N    0.163     4 N    0.103
     4   7 N    3.236 --     9 H    0.883    10 H    0.861    11 H    0.482
                             5 I    0.282     2 N    0.239     1 C    0.177
                             8 H    0.106     3 N    0.103
     5  53 I    0.311 --     2 N    0.485     4 N    0.282     1 C    0.215
     6   1 H    0.919 --     2 N    0.676
     7   1 H    0.418 --     1 C    0.347     8 H    0.117    11 H    0.114
     8   1 H    0.775 --     1 C    0.362     7 H    0.117     4 N    0.106
     9   1 H    1.000 --     4 N    0.883
    10   1 H    0.970 --     4 N    0.861
    11   1 H    0.698 --     4 N    0.482     7 H    0.114
 ---------------------------------------------------------------------------

Topologies differ in total number of bonds
Writing topology from bond orders to xtbtopo.mol

molecular dipole:
                 x           y           z       tot (Debye)
 q only:        1.467      -2.320       3.288
   full:       -3.101      -1.500       3.961      13.343
molecular quadrupole (traceless):
                xx          xy          yy          xz          yz          zz
 q only:       13.159      -4.455      -9.739      11.769       0.423      -3.420
  q+dip:       -0.848      -1.240      -5.164      12.779       0.891       6.013
   full:       -0.661       0.803      -2.233      13.060       1.185       2.894


           -------------------------------------------------
          | TOTAL ENERGY              113.144769470555 Eh   |
          | GRADIENT NORM             529.134074191410 Eh/α |
          | HOMO-LUMO GAP               2.321673103696 eV   |
           -------------------------------------------------

------------------------------------------------------------------------
 * finished run on 2026/07/30 at 19:57:34.948     
------------------------------------------------------------------------
 total:
 * wall-time:     0 d,  0 h,  0 min,  0.061 sec
 *  cpu-time:     0 d,  0 h,  0 min,  0.125 sec
 * ratio c/w:     2.059 speedup
 SCF:
 * wall-time:     0 d,  0 h,  0 min,  0.039 sec
 *  cpu-time:     0 d,  0 h,  0 min,  0.109 sec
 * ratio c/w:     2.827 speedup

