27
Mol_7
C -2.737187 1.922493 0.094710
C -3.783541 1.005253 0.041088
C -3.544172 -0.344141 -0.233686
C -2.217953 -0.737046 -0.450610
C -1.147560 0.156202 -0.401944
C -1.416976 1.512555 -0.125107
C 0.046533 -0.589911 -0.665497
C -0.337886 -1.900774 -0.873328
N -1.698139 -1.976611 -0.739468
C 1.445227 -0.053097 -0.717602
C 2.046833 0.235985 0.667701
C 3.380641 0.949400 0.452133
O 3.541612 2.154272 0.332248
O 4.431937 0.108122 0.316376
N 2.241157 -0.983430 1.494283
H -2.944998 2.967903 0.309252
H -4.802680 1.343081 0.214733
H -4.362116 -1.055713 -0.276203
H -0.611172 2.239402 -0.081214
H 0.240270 -2.784897 -1.107764
H -2.249215 -2.817465 -0.841638
H 2.086850 -0.758615 -1.263429
H 1.443491 0.866009 -1.319155
H 1.405107 0.913986 1.241588
H 5.197637 0.710411 0.211797
H 2.964357 -1.550606 1.047836
H 1.381945 -1.532769 1.462275
