      -----------------------------------------------------------      
     |                   =====================                   |     
     |                           x T B                           |     
     |                   =====================                   |     
     |                         S. Grimme                         |     
     |          Mulliken Center for Theoretical Chemistry        |     
     |                    University of Bonn                     |     
      -----------------------------------------------------------      

   * xtb version 6.7.1 (edcfbbe) compiled by 'VssAdministrator@runnervmowedg' on 2025-09-04

   xtb is free software: you can redistribute it and/or modify it under
   the terms of the GNU Lesser General Public License as published by
   the Free Software Foundation, either version 3 of the License, or
   (at your option) any later version.
   
   xtb is distributed in the hope that it will be useful,
   but WITHOUT ANY WARRANTY; without even the implied warranty of
   MERCHANTABILITY or FITNESS FOR A PARTICULAR PURPOSE.  See the
   GNU Lesser General Public License for more details.
   
   Cite this work as:
   * C. Bannwarth, E. Caldeweyher, S. Ehlert, A. Hansen, P. Pracht,
     J. Seibert, S. Spicher, S. Grimme, WIREs Comput. Mol. Sci., 2020, 11,
     e01493. DOI: 10.1002/wcms.1493
   
   for GFN2-xTB:
   * C. Bannwarth, S. Ehlert and S. Grimme., J. Chem. Theory Comput., 2019,
     15, 1652-1671. DOI: 10.1021/acs.jctc.8b01176
   for GFN1-xTB:
   * S. Grimme, C. Bannwarth, P. Shushkov, J. Chem. Theory Comput., 2017,
     13, 1989-2009. DOI: 10.1021/acs.jctc.7b00118
   for GFN0-xTB:
   * P. Pracht, E. Caldeweyher, S. Ehlert, S. Grimme, ChemRxiv, 2019, preprint.
     DOI: 10.26434/chemrxiv.8326202.v1
   for GFN-FF:
   * S. Spicher and S. Grimme, Angew. Chem. Int. Ed., 2020, 59, 15665-15673.
     DOI: 10.1002/anie.202004239
   
   for ALPB and GBSA implicit solvation:
   * S. Ehlert, M. Stahn, S. Spicher, S. Grimme, J. Chem. Theory Comput.,
     2021, 17, 4250-4261. DOI: 10.1021/acs.jctc.1c00471
   
   for ddCOSMO and CPCM-X implicit solvation:
   * M. Stahn, S. Ehlert, S. Grimme, J. Phys. Chem. A,
     2023, XX, XXXX-XXXX. DOI: 10.1021/acs.jpca.3c04382
   
   for DFT-D4:
   * E. Caldeweyher, C. Bannwarth and S. Grimme, J. Chem. Phys., 2017,
     147, 034112. DOI: 10.1063/1.4993215
   * E. Caldeweyher, S. Ehlert, A. Hansen, H. Neugebauer, S. Spicher,
     C. Bannwarth and S. Grimme, J. Chem. Phys., 2019, 150, 154122.
     DOI: 10.1063/1.5090222
   * E. Caldeweyher, J.-M. Mewes, S. Ehlert and S. Grimme, Phys. Chem. Chem. Phys.
     2020, 22, 8499-8512. DOI: 10.1039/D0CP00502A
   
   for sTDA-xTB:
   * S. Grimme and C. Bannwarth, J. Chem. Phys., 2016, 145, 054103.
     DOI: 10.1063/1.4959605
   
   in the mass-spec context:
   * V. Asgeirsson, C. Bauer and S. Grimme, Chem. Sci., 2017, 8, 4879.
     DOI: 10.1039/c7sc00601b
   * J. Koopman and S. Grimme, ACS Omega 2019, 4, 12, 15120-15133.
     DOI: 10.1021/acsomega.9b02011
   
   for metadynamics refer to:
   * S. Grimme, J. Chem. Theory Comput., 2019, 155, 2847-2862
     DOI: 10.1021/acs.jctc.9b00143
   
   for SPH calculations refer to:
   * S. Spicher and S. Grimme, J. Chem. Theory Comput., 2021, 17, 1701-1714
     DOI: 10.1021/acs.jctc.0c01306
   
   for ONIOM refer to:
   * C. Plett, A. Katbashev, S. Ehlert, S. Grimme, M. Bursch,
     Phys. Chem. Chem. Phys., 2023, 25, 17860-17868. DOI: 10.1039/D3CP02178E
   
   for DIPRO refer to:
   * J. Kohn, N. Gildemeister, S. Grimme, D. Fazzi, A. Hansen,
     J. Chem. Phys., 2023, just accepted.
   
   for PTB refer to:
   * S. Grimme, M. Mueller, A. Hansen, J. Chem. Phys., 2023, 158, 124111.
     DOI: 10.1063/5.0137838
   
   with help from (in alphabetical order)
   P. Atkinson, C. Bannwarth, F. Bohle, G. Brandenburg, E. Caldeweyher
   M. Checinski, S. Dohm, S. Ehlert, S. Ehrlich, I. Gerasimov, C. Hölzer
   A. Katbashev, J. Kohn, J. Koopman, C. Lavigne, S. Lehtola, F. März, M. Müller,
   F. Musil, H. Neugebauer, J. Pisarek, C. Plett, P. Pracht, F. Pultar,
   J. Seibert, P. Shushkov, S. Spicher, M. Stahn, M. Steiner, T. Strunk,
   J. Stückrath, T. Rose, and J. Unsleber
   
 * started run on 2026/07/30 at 19:57:42.528     
   ID    Z sym.   atoms
    1    6 C      1-8, 10-12
    2    7 N      9, 15
    3    8 O      13, 14
    4    1 H      16-27

           -------------------------------------------------
          |                Calculation Setup                |
           -------------------------------------------------

          program call               : xtb Mol_7.xyz --gfn 2 --sp --alpb acetonitrile
          coordinate file            : Mol_7.xyz
          omp threads                :                    32


           -------------------------------------------------
          |                 G F N 2 - x T B                 |
           -------------------------------------------------

        Reference                      10.1021/acs.jctc.8b01176
      * Hamiltonian:
        H0-scaling (s, p, d)           1.850000    2.230000    2.230000
        zeta-weighting                 0.500000
      * Dispersion:
        s8                             2.700000
        a1                             0.520000
        a2                             5.000000
        s9                             5.000000
      * Repulsion:
        kExp                           1.500000    1.000000
        rExp                           1.000000
      * Coulomb:
        alpha                          2.000000
        third order                    shell-resolved
        anisotropic                    true
        a3                             3.000000
        a5                             4.000000
        cn-shift                       1.200000
        cn-exp                         4.000000
        max-rad                        5.000000

      * Solvation model:               ALPB
        Solvent                        acetonitrile
        Parameter file                 internal GFN2-xTB/ALPB
        Dielectric constant                3.7500E+01
        Reference state                gsolv [1 M gas/solution]
        Free energy shift                  5.1987E-03 Eh       3.2622E+00 kcal/mol
        Temperature                        2.9815E+02 K
        Density                            7.8600E-01 kg/L
        Solvent mass                       4.1050E+01 g/mol
        Interaction kernel             P16
        Born radius scaling (c1)           1.7214E+00
        Born radii integrator          GBOBC
        Born offset                        0.0000E+00 a0       0.0000E+00 AA
        H-bond correction              true
        Ion screening                  false
        Surface tension                    1.0000E-05 Eh       1.5569E+01 dyn/cm
        Grid points                               230 per atom

          ...................................................
          :                      SETUP                      :
          :.................................................:
          :  # basis functions                  72          :
          :  # atomic orbitals                  72          :
          :  # shells                           42          :
          :  # electrons                        78          :
          :  max. iterations                   250          :
          :  Hamiltonian                  GFN2-xTB          :
          :  restarted?                      false          :
          :  GBSA solvation                   true          :
          :  PC potential                    false          :
          :  electronic temp.          300.0000000     K    :
          :  accuracy                    1.0000000          :
          :  -> integral cutoff          0.2500000E+02      :
          :  -> integral neglect         0.1000000E-07      :
          :  -> SCF convergence          0.1000000E-05 Eh   :
          :  -> wf. convergence          0.1000000E-03 e    :
          :  Broyden damping             0.4000000          :
          :  net charge                          0          :
          :  unpaired electrons                  0          :
          ...................................................

 iter      E             dE          RMSdq      gap      omega  full diag
   1    -44.1781153 -0.441781E+02  0.438E+00    3.06       0.0  T
   2    -44.2536487 -0.755334E-01  0.261E+00    2.71       1.0  T
   3    -44.2554641 -0.181538E-02  0.141E+00    3.27       1.0  T
   4    -44.2627833 -0.731917E-02  0.487E-01    2.99       1.0  T
   5    -44.2677144 -0.493117E-02  0.111E-01    2.97       1.0  T
   6    -44.2678321 -0.117708E-03  0.576E-02    2.96       1.0  T
   7    -44.2678535 -0.213596E-04  0.241E-02    2.95       1.0  T
   8    -44.2678544 -0.865345E-06  0.116E-02    2.94       1.7  T
   9    -44.2678559 -0.147897E-05  0.325E-03    2.95       5.9  T
  10    -44.2678559 -0.469088E-07  0.166E-03    2.95      11.6  T
  11    -44.2678559 -0.157096E-07  0.854E-04    2.95      22.5  T
  12    -44.2678559 -0.381801E-08  0.244E-04    2.95      78.8  T

   *** convergence criteria satisfied after 12 iterations ***

         #    Occupation            Energy/Eh            Energy/eV
      -------------------------------------------------------------
         1        2.0000           -0.7451169             -20.2757
       ...           ...                  ...                  ...
        33        2.0000           -0.4262951             -11.6001
        34        2.0000           -0.4245504             -11.5526
        35        2.0000           -0.4135019             -11.2520
        36        2.0000           -0.4109632             -11.1829
        37        2.0000           -0.3830143             -10.4223
        38        2.0000           -0.3768229             -10.2539
        39        2.0000           -0.3589276              -9.7669 (HOMO)
        40                         -0.2506576              -6.8207 (LUMO)
        41                         -0.2341060              -6.3703
        42                         -0.1955490              -5.3212
        43                         -0.1621390              -4.4120
        44                         -0.0737027              -2.0056
       ...                                ...                  ...
        72                          0.6968415              18.9620
      -------------------------------------------------------------
                  HL-Gap            0.1082701 Eh            2.9462 eV
             Fermi-level           -0.3047926 Eh           -8.2938 eV

 SCC (total)                   0 d,  0 h,  0 min,  0.034 sec
 SCC setup                      ...        0 min,  0.001 sec (  2.257%)
 Dispersion                     ...        0 min,  0.000 sec (  1.256%)
 classical contributions        ...        0 min,  0.000 sec (  0.389%)
 integral evaluation            ...        0 min,  0.001 sec (  2.523%)
 iterations                     ...        0 min,  0.029 sec ( 85.110%)
 molecular gradient             ...        0 min,  0.002 sec (  7.201%)
 printout                       ...        0 min,  0.000 sec (  1.192%)

         :::::::::::::::::::::::::::::::::::::::::::::::::::::
         ::                     SUMMARY                     ::
         :::::::::::::::::::::::::::::::::::::::::::::::::::::
         :: total energy             -43.678550733029 Eh    ::
         :: total w/o Gsasa/hb       -43.657881183415 Eh    ::
         :: gradient norm              0.332038013133 Eh/a0 ::
         :: HOMO-LUMO gap              2.946178221099 eV    ::
         ::.................................................::
         :: SCC energy               -44.267752519963 Eh    ::
         :: -> isotropic ES            0.071023731693 Eh    ::
         :: -> anisotropic ES          0.006546851865 Eh    ::
         :: -> anisotropic XC          0.019030870492 Eh    ::
         :: -> dispersion             -0.025988989047 Eh    ::
         :: -> Gsolv                  -0.026519880812 Eh    ::
         ::    -> Gelec               -0.005850331198 Eh    ::
         ::    -> Gsasa               -0.020818701903 Eh    ::
         ::    -> Ghb                 -0.005049502462 Eh    ::
         ::    -> Gshift               0.005198654751 Eh    ::
         :: repulsion energy           0.589201786933 Eh    ::
         :: add. restraining           0.000000000000 Eh    ::
         :: total charge               0.000000000000 e     ::
         :::::::::::::::::::::::::::::::::::::::::::::::::::::

           -------------------------------------------------
          |                Property Printout                |
           -------------------------------------------------

    * Orbital Energies and Occupations

         #    Occupation            Energy/Eh            Energy/eV
      -------------------------------------------------------------
         1        2.0000           -0.7451169             -20.2757
       ...           ...                  ...                  ...
        27        2.0000           -0.4756547             -12.9432
        28        2.0000           -0.4744198             -12.9096
        29        2.0000           -0.4634420             -12.6109
        30        2.0000           -0.4623380             -12.5809
        31        2.0000           -0.4509695             -12.2715
        32        2.0000           -0.4466425             -12.1538
        33        2.0000           -0.4262951             -11.6001
        34        2.0000           -0.4245504             -11.5526
        35        2.0000           -0.4135019             -11.2520
        36        2.0000           -0.4109632             -11.1829
        37        2.0000           -0.3830143             -10.4223
        38        2.0000           -0.3768229             -10.2539
        39        2.0000           -0.3589276              -9.7669 (HOMO)
        40                         -0.2506576              -6.8207 (LUMO)
        41                         -0.2341060              -6.3703
        42                         -0.1955490              -5.3212
        43                         -0.1621390              -4.4120
        44                         -0.0737027              -2.0056
        45                          0.0188857               0.5139
        46                          0.0233305               0.6349
        47                          0.0486542               1.3239
        48                          0.0907847               2.4704
        49                          0.0975773               2.6552
        50                          0.1154821               3.1424
       ...                                ...                  ...
        72                          0.6968415              18.9620
      -------------------------------------------------------------
                  HL-Gap            0.1082701 Eh            2.9462 eV
             Fermi-level           -0.3047926 Eh           -8.2938 eV

     #   Z          covCN         q      C6AA      α(0)
     1   6 C        2.908    -0.043    29.060     8.839
     2   6 C        2.915    -0.038    28.935     8.821
     3   6 C        2.906    -0.057    29.406     8.892
     4   6 C        3.060     0.047    26.896     8.505
     5   6 C        3.098    -0.016    28.285     8.716
     6   6 C        2.912    -0.040    28.997     8.830
     7   6 C        3.063    -0.033    28.760     8.794
     8   6 C        2.989    -0.009    28.232     8.716
     9   7 N        2.793    -0.115    23.498     7.200
    10   6 C        3.806    -0.058    21.617     6.619
    11   6 C        3.780     0.032    20.057     6.380
    12   6 C        2.692     0.347    21.109     7.519
    13   8 O        0.856    -0.447    22.641     6.380
    14   8 O        1.657    -0.389    20.631     6.132
    15   7 N        2.627    -0.364    29.379     8.050
    16   1 H        0.925     0.024     2.673     2.557
    17   1 H        0.925     0.026     2.638     2.540
    18   1 H        0.925     0.030     2.589     2.516
    19   1 H        0.925     0.023     2.692     2.566
    20   1 H        0.925     0.043     2.412     2.428
    21   1 H        0.860     0.185     1.187     1.706
    22   1 H        0.923     0.042     2.423     2.434
    23   1 H        0.923     0.041     2.430     2.438
    24   1 H        0.924     0.064     2.151     2.294
    25   1 H        0.804     0.376     0.531     1.145
    26   1 H        0.860     0.165     1.304     1.789
    27   1 H        0.860     0.163     1.319     1.799

 Mol. C6AA /au·bohr⁶  :       8576.631798
 Mol. C8AA /au·bohr⁸  :     203512.268377
 Mol. α(0) /au        :        144.602780


Wiberg/Mayer (AO) data.
largest (>0.10) Wiberg bond orders for each atom

 ---------------------------------------------------------------------------
     #   Z sym  total        # sym  WBO       # sym  WBO       # sym  WBO
 ---------------------------------------------------------------------------
     1   6 C    3.990 --     6 C    1.493     2 C    1.389    16 H    0.972
     2   6 C    3.990 --     3 C    1.482     1 C    1.389    17 H    0.972
     3   6 C    3.988 --     2 C    1.482     4 C    1.334    18 H    0.970
                             6 C    0.126
     4   6 C    3.961 --     3 C    1.334     5 C    1.264     9 N    1.172
     5   6 C    3.985 --     6 C    1.324     4 C    1.264     7 C    1.204
     6   6 C    3.991 --     1 C    1.493     5 C    1.324    19 H    0.971
                             3 C    0.126
     7   6 C    3.972 --     8 C    1.569     5 C    1.204    10 C    1.014
     8   6 C    3.949 --     7 C    1.569     9 N    1.208    20 H    0.969
     9   7 N    3.541 --     8 C    1.208     4 C    1.172    21 H    0.938
    10   6 C    3.992 --     7 C    1.014    22 H    0.973    23 H    0.965
                            11 C    0.945
    11   6 C    3.985 --    15 N    1.016    12 C    0.963    24 H    0.956
                            10 C    0.945
    12   6 C    3.905 --    13 O    1.736    14 O    1.153    11 C    0.963
    13   8 O    2.003 --    12 C    1.736    14 O    0.173
    14   8 O    2.195 --    12 C    1.153    25 H    0.835    13 O    0.173
    15   7 N    2.993 --    11 C    1.016    26 H    0.957    27 H    0.956
    16   1 H    0.999 --     1 C    0.972
    17   1 H    0.999 --     2 C    0.972
    18   1 H    0.999 --     3 C    0.970
    19   1 H    0.999 --     6 C    0.971
    20   1 H    0.997 --     8 C    0.969
    21   1 H    0.965 --     9 N    0.938
    22   1 H    0.998 --    10 C    0.973
    23   1 H    0.998 --    10 C    0.965
    24   1 H    0.996 --    11 C    0.956
    25   1 H    0.858 --    14 O    0.835
    26   1 H    0.973 --    15 N    0.957
    27   1 H    0.974 --    15 N    0.956
 ---------------------------------------------------------------------------

Topologies differ in total number of bonds
Writing topology from bond orders to xtbtopo.mol

molecular dipole:
                 x           y           z       tot (Debye)
 q only:       -0.340      -1.759      -0.415
   full:       -0.420      -1.987      -0.774       5.524
molecular quadrupole (traceless):
                xx          xy          yy          xz          yz          zz
 q only:        5.550      -1.962      -1.814      -1.574       1.402      -3.737
  q+dip:        9.122      -0.369       1.756      -4.995       4.172     -10.878
   full:        7.807      -0.435      -0.088      -4.282       3.151      -7.719


           -------------------------------------------------
          | TOTAL ENERGY              -43.678550733029 Eh   |
          | GRADIENT NORM               0.332038013133 Eh/α |
          | HOMO-LUMO GAP               2.946178221099 eV   |
           -------------------------------------------------

------------------------------------------------------------------------
 * finished run on 2026/07/30 at 19:57:42.588     
------------------------------------------------------------------------
 total:
 * wall-time:     0 d,  0 h,  0 min,  0.059 sec
 *  cpu-time:     0 d,  0 h,  0 min,  0.094 sec
 * ratio c/w:     1.579 speedup
 SCF:
 * wall-time:     0 d,  0 h,  0 min,  0.035 sec
 *  cpu-time:     0 d,  0 h,  0 min,  0.062 sec
 * ratio c/w:     1.797 speedup

