26
Mol_9
C -4.779619 -0.466011 0.313024
C -4.012926 -0.834084 1.421352
C -2.739117 -0.295805 1.598173
C -2.242367 0.597307 0.650490
C -3.004578 0.987433 -0.449132
C -4.277562 0.445115 -0.619429
O -0.987729 1.174084 0.847641
C 0.045687 0.442780 0.278644
O -0.062512 -0.605735 -0.344201
O 1.224814 1.123506 0.548429
C 2.354830 0.492575 0.028191
C 2.793785 0.826093 -1.251887
C 3.950328 0.227942 -1.750107
C 4.661172 -0.681880 -0.963588
C 4.221088 -0.992914 0.325314
C 3.065381 -0.398689 0.830126
H -5.772043 -0.888835 0.176702
H -4.410342 -1.539980 2.146007
H -2.143690 -0.574509 2.461877
H -2.614363 1.701021 -1.167967
H -4.880289 0.731398 -1.477398
H 2.243080 1.538590 -1.857912
H 4.299799 0.469588 -2.750522
H 5.561843 -1.148253 -1.355451
H 4.780643 -1.697980 0.934517
H 2.724687 -0.632758 1.833788
