26
Mol_3
C -1.911425 2.098219 -1.289947
O -0.626719 1.546068 -1.065240
Si -0.491437 0.090451 -0.263786
C 1.350180 -0.386971 -0.154663
C 2.236404 0.648021 0.547195
C 3.684097 0.188258 0.580076
Br 4.780531 1.516298 1.486943
O -1.118355 0.251899 1.272682
C -2.462871 -0.118159 1.526325
O -1.373696 -1.051583 -1.100854
C -1.040216 -2.423153 -0.969363
H -1.792240 2.992566 -1.909712
H -2.377680 2.406414 -0.347960
H -2.564968 1.403041 -1.828897
H 1.713494 -0.549710 -1.176113
H 1.420679 -1.345313 0.372811
H 2.165331 1.614339 0.030796
H 1.875515 0.816269 1.570431
H 3.804282 -0.746378 1.134745
H 4.099989 0.073061 -0.424603
H -2.593015 -1.202975 1.449196
H -2.706449 0.173938 2.552668
H -3.162982 0.394140 0.857667
H -1.801959 -3.009214 -1.492992
H -1.033473 -2.741360 0.079265
H -0.073017 -2.638165 -1.436670
