      -----------------------------------------------------------      
     |                   =====================                   |     
     |                           x T B                           |     
     |                   =====================                   |     
     |                         S. Grimme                         |     
     |          Mulliken Center for Theoretical Chemistry        |     
     |                    University of Bonn                     |     
      -----------------------------------------------------------      

   * xtb version 6.7.1 (edcfbbe) compiled by 'VssAdministrator@runnervmowedg' on 2025-09-04

   xtb is free software: you can redistribute it and/or modify it under
   the terms of the GNU Lesser General Public License as published by
   the Free Software Foundation, either version 3 of the License, or
   (at your option) any later version.
   
   xtb is distributed in the hope that it will be useful,
   but WITHOUT ANY WARRANTY; without even the implied warranty of
   MERCHANTABILITY or FITNESS FOR A PARTICULAR PURPOSE.  See the
   GNU Lesser General Public License for more details.
   
   Cite this work as:
   * C. Bannwarth, E. Caldeweyher, S. Ehlert, A. Hansen, P. Pracht,
     J. Seibert, S. Spicher, S. Grimme, WIREs Comput. Mol. Sci., 2020, 11,
     e01493. DOI: 10.1002/wcms.1493
   
   for GFN2-xTB:
   * C. Bannwarth, S. Ehlert and S. Grimme., J. Chem. Theory Comput., 2019,
     15, 1652-1671. DOI: 10.1021/acs.jctc.8b01176
   for GFN1-xTB:
   * S. Grimme, C. Bannwarth, P. Shushkov, J. Chem. Theory Comput., 2017,
     13, 1989-2009. DOI: 10.1021/acs.jctc.7b00118
   for GFN0-xTB:
   * P. Pracht, E. Caldeweyher, S. Ehlert, S. Grimme, ChemRxiv, 2019, preprint.
     DOI: 10.26434/chemrxiv.8326202.v1
   for GFN-FF:
   * S. Spicher and S. Grimme, Angew. Chem. Int. Ed., 2020, 59, 15665-15673.
     DOI: 10.1002/anie.202004239
   
   for ALPB and GBSA implicit solvation:
   * S. Ehlert, M. Stahn, S. Spicher, S. Grimme, J. Chem. Theory Comput.,
     2021, 17, 4250-4261. DOI: 10.1021/acs.jctc.1c00471
   
   for ddCOSMO and CPCM-X implicit solvation:
   * M. Stahn, S. Ehlert, S. Grimme, J. Phys. Chem. A,
     2023, XX, XXXX-XXXX. DOI: 10.1021/acs.jpca.3c04382
   
   for DFT-D4:
   * E. Caldeweyher, C. Bannwarth and S. Grimme, J. Chem. Phys., 2017,
     147, 034112. DOI: 10.1063/1.4993215
   * E. Caldeweyher, S. Ehlert, A. Hansen, H. Neugebauer, S. Spicher,
     C. Bannwarth and S. Grimme, J. Chem. Phys., 2019, 150, 154122.
     DOI: 10.1063/1.5090222
   * E. Caldeweyher, J.-M. Mewes, S. Ehlert and S. Grimme, Phys. Chem. Chem. Phys.
     2020, 22, 8499-8512. DOI: 10.1039/D0CP00502A
   
   for sTDA-xTB:
   * S. Grimme and C. Bannwarth, J. Chem. Phys., 2016, 145, 054103.
     DOI: 10.1063/1.4959605
   
   in the mass-spec context:
   * V. Asgeirsson, C. Bauer and S. Grimme, Chem. Sci., 2017, 8, 4879.
     DOI: 10.1039/c7sc00601b
   * J. Koopman and S. Grimme, ACS Omega 2019, 4, 12, 15120-15133.
     DOI: 10.1021/acsomega.9b02011
   
   for metadynamics refer to:
   * S. Grimme, J. Chem. Theory Comput., 2019, 155, 2847-2862
     DOI: 10.1021/acs.jctc.9b00143
   
   for SPH calculations refer to:
   * S. Spicher and S. Grimme, J. Chem. Theory Comput., 2021, 17, 1701-1714
     DOI: 10.1021/acs.jctc.0c01306
   
   for ONIOM refer to:
   * C. Plett, A. Katbashev, S. Ehlert, S. Grimme, M. Bursch,
     Phys. Chem. Chem. Phys., 2023, 25, 17860-17868. DOI: 10.1039/D3CP02178E
   
   for DIPRO refer to:
   * J. Kohn, N. Gildemeister, S. Grimme, D. Fazzi, A. Hansen,
     J. Chem. Phys., 2023, just accepted.
   
   for PTB refer to:
   * S. Grimme, M. Mueller, A. Hansen, J. Chem. Phys., 2023, 158, 124111.
     DOI: 10.1063/5.0137838
   
   with help from (in alphabetical order)
   P. Atkinson, C. Bannwarth, F. Bohle, G. Brandenburg, E. Caldeweyher
   M. Checinski, S. Dohm, S. Ehlert, S. Ehrlich, I. Gerasimov, C. Hölzer
   A. Katbashev, J. Kohn, J. Koopman, C. Lavigne, S. Lehtola, F. März, M. Müller,
   F. Musil, H. Neugebauer, J. Pisarek, C. Plett, P. Pracht, F. Pultar,
   J. Seibert, P. Shushkov, S. Spicher, M. Stahn, M. Steiner, T. Strunk,
   J. Stückrath, T. Rose, and J. Unsleber
   
 * started run on 2026/07/30 at 19:57:38.388     
   ID    Z sym.   atoms
    1    6 C      1, 4-6, 9, 11
    2    8 O      2, 8, 10
    3   14 Si     3
    4   35 Br     7
    5    1 H      12-26

           -------------------------------------------------
          |                Calculation Setup                |
           -------------------------------------------------

          program call               : xtb Mol_3.xyz --gfn 2 --sp --alpb acetonitrile
          coordinate file            : Mol_3.xyz
          omp threads                :                    32


           -------------------------------------------------
          |                 G F N 2 - x T B                 |
           -------------------------------------------------

        Reference                      10.1021/acs.jctc.8b01176
      * Hamiltonian:
        H0-scaling (s, p, d)           1.850000    2.230000    2.230000
        zeta-weighting                 0.500000
      * Dispersion:
        s8                             2.700000
        a1                             0.520000
        a2                             5.000000
        s9                             5.000000
      * Repulsion:
        kExp                           1.500000    1.000000
        rExp                           1.000000
      * Coulomb:
        alpha                          2.000000
        third order                    shell-resolved
        anisotropic                    true
        a3                             3.000000
        a5                             4.000000
        cn-shift                       1.200000
        cn-exp                         4.000000
        max-rad                        5.000000

      * Solvation model:               ALPB
        Solvent                        acetonitrile
        Parameter file                 internal GFN2-xTB/ALPB
        Dielectric constant                3.7500E+01
        Reference state                gsolv [1 M gas/solution]
        Free energy shift                  5.1987E-03 Eh       3.2622E+00 kcal/mol
        Temperature                        2.9815E+02 K
        Density                            7.8600E-01 kg/L
        Solvent mass                       4.1050E+01 g/mol
        Interaction kernel             P16
        Born radius scaling (c1)           1.7214E+00
        Born radii integrator          GBOBC
        Born offset                        0.0000E+00 a0       0.0000E+00 AA
        H-bond correction              true
        Ion screening                  false
        Surface tension                    1.0000E-05 Eh       1.5569E+01 dyn/cm
        Grid points                               230 per atom

          ...................................................
          :                      SETUP                      :
          :.................................................:
          :  # basis functions                  71          :
          :  # atomic orbitals                  69          :
          :  # shells                           39          :
          :  # electrons                        68          :
          :  max. iterations                   250          :
          :  Hamiltonian                  GFN2-xTB          :
          :  restarted?                      false          :
          :  GBSA solvation                   true          :
          :  PC potential                    false          :
          :  electronic temp.          300.0000000     K    :
          :  accuracy                    1.0000000          :
          :  -> integral cutoff          0.2500000E+02      :
          :  -> integral neglect         0.1000000E-07      :
          :  -> SCF convergence          0.1000000E-05 Eh   :
          :  -> wf. convergence          0.1000000E-03 e    :
          :  Broyden damping             0.4000000          :
          :  net charge                          0          :
          :  unpaired electrons                  0          :
          ...................................................

 iter      E             dE          RMSdq      gap      omega  full diag
   1    -38.8264543 -0.388265E+02  0.558E+00    5.75       0.0  T
   2    -38.9550382 -0.128584E+00  0.318E+00    5.39       1.0  T
   3    -38.9537509  0.128734E-02  0.157E+00    5.44       1.0  T
   4    -38.9667325 -0.129816E-01  0.690E-01    5.30       1.0  T
   5    -38.9684874 -0.175486E-02  0.476E-01    5.28       1.0  T
   6    -38.9700651 -0.157771E-02  0.232E-01    5.29       1.0  T
   7    -38.9701825 -0.117468E-03  0.160E-01    5.26       1.0  T
   8    -38.9703236 -0.141083E-03  0.548E-02    5.24       1.0  T
   9    -38.9703324 -0.879344E-05  0.343E-02    5.23       1.0  T
  10    -38.9703363 -0.391695E-05  0.154E-02    5.23       1.3  T
  11    -38.9703371 -0.753896E-06  0.457E-03    5.23       4.3  T
  12    -38.9703371 -0.731869E-07  0.267E-03    5.23       7.4  T
  13    -38.9703372 -0.110604E-07  0.849E-04    5.23      23.1  T
  14    -38.9703372 -0.212982E-08  0.379E-04    5.23      51.8  T

   *** convergence criteria satisfied after 14 iterations ***

         #    Occupation            Energy/Eh            Energy/eV
      -------------------------------------------------------------
         1        2.0000           -0.8360785             -22.7509
       ...           ...                  ...                  ...
        28        2.0000           -0.4462260             -12.1424
        29        2.0000           -0.4351694             -11.8416
        30        2.0000           -0.4345027             -11.8234
        31        2.0000           -0.4273233             -11.6281
        32        2.0000           -0.4186682             -11.3925
        33        2.0000           -0.4061939             -11.0531
        34        2.0000           -0.4056698             -11.0388 (HOMO)
        35                         -0.2134758              -5.8090 (LUMO)
        36                         -0.1398515              -3.8056
        37                         -0.1280159              -3.4835
        38                         -0.1056661              -2.8753
        39                         -0.0126414              -0.3440
       ...                                ...                  ...
        69                          0.7422211              20.1969
      -------------------------------------------------------------
                  HL-Gap            0.1921940 Eh            5.2299 eV
             Fermi-level           -0.3095728 Eh           -8.4239 eV

 SCC (total)                   0 d,  0 h,  0 min,  0.038 sec
 SCC setup                      ...        0 min,  0.001 sec (  2.089%)
 Dispersion                     ...        0 min,  0.000 sec (  1.178%)
 classical contributions        ...        0 min,  0.000 sec (  0.350%)
 integral evaluation            ...        0 min,  0.008 sec ( 20.403%)
 iterations                     ...        0 min,  0.026 sec ( 67.306%)
 molecular gradient             ...        0 min,  0.003 sec (  7.625%)
 printout                       ...        0 min,  0.000 sec (  0.989%)

         :::::::::::::::::::::::::::::::::::::::::::::::::::::
         ::                     SUMMARY                     ::
         :::::::::::::::::::::::::::::::::::::::::::::::::::::
         :: total energy             -38.635079066128 Eh    ::
         :: total w/o Gsasa/hb       -38.621370391888 Eh    ::
         :: gradient norm              0.279298416618 Eh/a0 ::
         :: HOMO-LUMO gap              5.229863794063 eV    ::
         ::.................................................::
         :: SCC energy               -38.970201605816 Eh    ::
         :: -> isotropic ES            0.090903138473 Eh    ::
         :: -> anisotropic ES          0.004614435205 Eh    ::
         :: -> anisotropic XC          0.004517066039 Eh    ::
         :: -> dispersion             -0.020076650840 Eh    ::
         :: -> Gsolv                  -0.017596254387 Eh    ::
         ::    -> Gelec               -0.003887580146 Eh    ::
         ::    -> Gsasa               -0.018175817341 Eh    ::
         ::    -> Ghb                 -0.000731511651 Eh    ::
         ::    -> Gshift               0.005198654751 Eh    ::
         :: repulsion energy           0.335122539688 Eh    ::
         :: add. restraining           0.000000000000 Eh    ::
         :: total charge              -0.000000000000 e     ::
         :::::::::::::::::::::::::::::::::::::::::::::::::::::

           -------------------------------------------------
          |                Property Printout                |
           -------------------------------------------------

    * Orbital Energies and Occupations

         #    Occupation            Energy/Eh            Energy/eV
      -------------------------------------------------------------
         1        2.0000           -0.8360785             -22.7509
       ...           ...                  ...                  ...
        22        2.0000           -0.5046832             -13.7331
        23        2.0000           -0.4915230             -13.3750
        24        2.0000           -0.4744814             -12.9113
        25        2.0000           -0.4631778             -12.6037
        26        2.0000           -0.4572606             -12.4427
        27        2.0000           -0.4542441             -12.3606
        28        2.0000           -0.4462260             -12.1424
        29        2.0000           -0.4351694             -11.8416
        30        2.0000           -0.4345027             -11.8234
        31        2.0000           -0.4273233             -11.6281
        32        2.0000           -0.4186682             -11.3925
        33        2.0000           -0.4061939             -11.0531
        34        2.0000           -0.4056698             -11.0388 (HOMO)
        35                         -0.2134758              -5.8090 (LUMO)
        36                         -0.1398515              -3.8056
        37                         -0.1280159              -3.4835
        38                         -0.1056661              -2.8753
        39                         -0.0126414              -0.3440
        40                          0.0175207               0.4768
        41                          0.0264147               0.7188
        42                          0.0393753               1.0715
        43                          0.0425751               1.1585
        44                          0.0566481               1.5415
        45                          0.0570629               1.5528
       ...                                ...                  ...
        69                          0.7422211              20.1969
      -------------------------------------------------------------
                  HL-Gap            0.1921940 Eh            5.2299 eV
             Fermi-level           -0.3095728 Eh           -8.4239 eV

     #   Z          covCN         q      C6AA      α(0)
     1   6 C        3.717     0.028    20.222     6.424
     2   8 O        1.618    -0.377    20.429     6.101
     3  14 Si       3.471     0.694    97.061    19.136
     4   6 C        3.699    -0.156    23.710     6.964
     5   6 C        3.884    -0.057    21.537     6.598
     6   6 C        3.741     0.025    20.232     6.417
     7  35 Br       0.995    -0.211   190.908    22.278
     8   8 O        1.618    -0.375    20.388     6.094
     9   6 C        3.713     0.028    20.224     6.426
    10   8 O        1.618    -0.377    20.429     6.101
    11   6 C        3.715     0.024    20.300     6.437
    12   1 H        0.924     0.066     2.133     2.284
    13   1 H        0.924     0.043     2.409     2.427
    14   1 H        0.924     0.047     2.356     2.401
    15   1 H        0.924     0.031     2.575     2.510
    16   1 H        0.924     0.030     2.588     2.516
    17   1 H        0.923     0.046     2.368     2.407
    18   1 H        0.923     0.049     2.336     2.390
    19   1 H        0.925     0.063     2.165     2.301
    20   1 H        0.925     0.062     2.176     2.307
    21   1 H        0.924     0.049     2.332     2.388
    22   1 H        0.924     0.067     2.119     2.276
    23   1 H        0.924     0.041     2.430     2.438
    24   1 H        0.924     0.071     2.072     2.251
    25   1 H        0.924     0.042     2.429     2.437
    26   1 H        0.924     0.048     2.344     2.394

 Mol. C6AA /au·bohr⁶  :       7575.698242
 Mol. C8AA /au·bohr⁸  :     228385.049300
 Mol. α(0) /au        :        134.701657


Wiberg/Mayer (AO) data.
largest (>0.10) Wiberg bond orders for each atom

 ---------------------------------------------------------------------------
     #   Z sym  total        # sym  WBO       # sym  WBO       # sym  WBO
 ---------------------------------------------------------------------------
     1   6 C    3.934 --    14 H    0.987    13 H    0.985     2 O    0.980
                            12 H    0.980
     2   8 O    2.222 --     3 Si   1.072     1 C    0.980
     3  14 Si   4.049 --    10 O    1.077     8 O    1.074     2 O    1.072
                             4 C    0.828
     4   6 C    3.987 --     5 C    1.017    16 H    0.988    15 H    0.987
                             3 Si   0.828
     5   6 C    3.992 --     4 C    1.017     6 C    1.016    17 H    0.979
                            18 H    0.979
     6   6 C    3.944 --     5 C    1.016    20 H    0.977    19 H    0.977
                             7 Br   0.955
     7  35 Br   1.000 --     6 C    0.955
     8   8 O    2.224 --     3 Si   1.074     9 C    0.976
     9   6 C    3.933 --    23 H    0.987    21 H    0.984    22 H    0.980
                             8 O    0.976
    10   8 O    2.224 --     3 Si   1.077    11 C    0.980
    11   6 C    3.933 --    25 H    0.987    26 H    0.985    10 O    0.980
                            24 H    0.980
    12   1 H    0.996 --     1 C    0.980
    13   1 H    0.998 --     1 C    0.985
    14   1 H    0.998 --     1 C    0.987
    15   1 H    0.999 --     4 C    0.987
    16   1 H    0.999 --     4 C    0.988
    17   1 H    0.998 --     5 C    0.979
    18   1 H    0.998 --     5 C    0.979
    19   1 H    0.996 --     6 C    0.977
    20   1 H    0.996 --     6 C    0.977
    21   1 H    0.998 --     9 C    0.984
    22   1 H    0.995 --     9 C    0.980
    23   1 H    0.998 --     9 C    0.987
    24   1 H    0.995 --    11 C    0.980
    25   1 H    0.998 --    11 C    0.987
    26   1 H    0.998 --    11 C    0.985
 ---------------------------------------------------------------------------

Topologies differ in total number of bonds
Writing topology from bond orders to xtbtopo.mol

molecular dipole:
                 x           y           z       tot (Debye)
 q only:       -1.413      -1.166      -0.358
   full:       -1.853      -1.804      -0.704       6.814
molecular quadrupole (traceless):
                xx          xy          yy          xz          yz          zz
 q only:       -5.297      -9.965       5.984      -8.140      -2.935      -0.688
  q+dip:      -12.910     -18.827       7.937     -15.725      -6.778       4.973
   full:      -11.088     -18.738       8.662     -15.155      -6.316       2.427


           -------------------------------------------------
          | TOTAL ENERGY              -38.635079066128 Eh   |
          | GRADIENT NORM               0.279298416618 Eh/α |
          | HOMO-LUMO GAP               5.229863794063 eV   |
           -------------------------------------------------

------------------------------------------------------------------------
 * finished run on 2026/07/30 at 19:57:38.454     
------------------------------------------------------------------------
 total:
 * wall-time:     0 d,  0 h,  0 min,  0.065 sec
 *  cpu-time:     0 d,  0 h,  0 min,  0.094 sec
 * ratio c/w:     1.433 speedup
 SCF:
 * wall-time:     0 d,  0 h,  0 min,  0.038 sec
 *  cpu-time:     0 d,  0 h,  0 min,  0.078 sec
 * ratio c/w:     2.039 speedup

