20
Mol_2
C -1.138577 -1.009994 -0.733705
C 0.212384 -0.826161 -1.039067
C 0.919765 0.215903 -0.432344
C 0.284478 1.086774 0.458282
C -1.067275 0.899629 0.760862
C -1.782810 -0.150304 0.167754
C -3.217935 -0.387228 0.459032
O -3.903008 -1.275405 -0.012723
O -3.726987 0.501064 1.330353
S 2.623108 0.470426 -0.841028
O 2.986955 1.832930 -0.530574
O 2.898402 -0.133813 -2.123199
N 3.397628 -0.486887 0.299322
H -1.689270 -1.823535 -1.203609
H 0.700768 -1.493874 -1.745884
H 0.829935 1.908771 0.917490
H -1.554302 1.579198 1.456907
H -4.664114 0.228501 1.423832
H 3.975707 0.095967 0.905564
H 3.915148 -1.231963 -0.168172
