      -----------------------------------------------------------      
     |                   =====================                   |     
     |                           x T B                           |     
     |                   =====================                   |     
     |                         S. Grimme                         |     
     |          Mulliken Center for Theoretical Chemistry        |     
     |                    University of Bonn                     |     
      -----------------------------------------------------------      

   * xtb version 6.7.1 (edcfbbe) compiled by 'VssAdministrator@runnervmowedg' on 2025-09-04

   xtb is free software: you can redistribute it and/or modify it under
   the terms of the GNU Lesser General Public License as published by
   the Free Software Foundation, either version 3 of the License, or
   (at your option) any later version.
   
   xtb is distributed in the hope that it will be useful,
   but WITHOUT ANY WARRANTY; without even the implied warranty of
   MERCHANTABILITY or FITNESS FOR A PARTICULAR PURPOSE.  See the
   GNU Lesser General Public License for more details.
   
   Cite this work as:
   * C. Bannwarth, E. Caldeweyher, S. Ehlert, A. Hansen, P. Pracht,
     J. Seibert, S. Spicher, S. Grimme, WIREs Comput. Mol. Sci., 2020, 11,
     e01493. DOI: 10.1002/wcms.1493
   
   for GFN2-xTB:
   * C. Bannwarth, S. Ehlert and S. Grimme., J. Chem. Theory Comput., 2019,
     15, 1652-1671. DOI: 10.1021/acs.jctc.8b01176
   for GFN1-xTB:
   * S. Grimme, C. Bannwarth, P. Shushkov, J. Chem. Theory Comput., 2017,
     13, 1989-2009. DOI: 10.1021/acs.jctc.7b00118
   for GFN0-xTB:
   * P. Pracht, E. Caldeweyher, S. Ehlert, S. Grimme, ChemRxiv, 2019, preprint.
     DOI: 10.26434/chemrxiv.8326202.v1
   for GFN-FF:
   * S. Spicher and S. Grimme, Angew. Chem. Int. Ed., 2020, 59, 15665-15673.
     DOI: 10.1002/anie.202004239
   
   for ALPB and GBSA implicit solvation:
   * S. Ehlert, M. Stahn, S. Spicher, S. Grimme, J. Chem. Theory Comput.,
     2021, 17, 4250-4261. DOI: 10.1021/acs.jctc.1c00471
   
   for ddCOSMO and CPCM-X implicit solvation:
   * M. Stahn, S. Ehlert, S. Grimme, J. Phys. Chem. A,
     2023, XX, XXXX-XXXX. DOI: 10.1021/acs.jpca.3c04382
   
   for DFT-D4:
   * E. Caldeweyher, C. Bannwarth and S. Grimme, J. Chem. Phys., 2017,
     147, 034112. DOI: 10.1063/1.4993215
   * E. Caldeweyher, S. Ehlert, A. Hansen, H. Neugebauer, S. Spicher,
     C. Bannwarth and S. Grimme, J. Chem. Phys., 2019, 150, 154122.
     DOI: 10.1063/1.5090222
   * E. Caldeweyher, J.-M. Mewes, S. Ehlert and S. Grimme, Phys. Chem. Chem. Phys.
     2020, 22, 8499-8512. DOI: 10.1039/D0CP00502A
   
   for sTDA-xTB:
   * S. Grimme and C. Bannwarth, J. Chem. Phys., 2016, 145, 054103.
     DOI: 10.1063/1.4959605
   
   in the mass-spec context:
   * V. Asgeirsson, C. Bauer and S. Grimme, Chem. Sci., 2017, 8, 4879.
     DOI: 10.1039/c7sc00601b
   * J. Koopman and S. Grimme, ACS Omega 2019, 4, 12, 15120-15133.
     DOI: 10.1021/acsomega.9b02011
   
   for metadynamics refer to:
   * S. Grimme, J. Chem. Theory Comput., 2019, 155, 2847-2862
     DOI: 10.1021/acs.jctc.9b00143
   
   for SPH calculations refer to:
   * S. Spicher and S. Grimme, J. Chem. Theory Comput., 2021, 17, 1701-1714
     DOI: 10.1021/acs.jctc.0c01306
   
   for ONIOM refer to:
   * C. Plett, A. Katbashev, S. Ehlert, S. Grimme, M. Bursch,
     Phys. Chem. Chem. Phys., 2023, 25, 17860-17868. DOI: 10.1039/D3CP02178E
   
   for DIPRO refer to:
   * J. Kohn, N. Gildemeister, S. Grimme, D. Fazzi, A. Hansen,
     J. Chem. Phys., 2023, just accepted.
   
   for PTB refer to:
   * S. Grimme, M. Mueller, A. Hansen, J. Chem. Phys., 2023, 158, 124111.
     DOI: 10.1063/5.0137838
   
   with help from (in alphabetical order)
   P. Atkinson, C. Bannwarth, F. Bohle, G. Brandenburg, E. Caldeweyher
   M. Checinski, S. Dohm, S. Ehlert, S. Ehrlich, I. Gerasimov, C. Hölzer
   A. Katbashev, J. Kohn, J. Koopman, C. Lavigne, S. Lehtola, F. März, M. Müller,
   F. Musil, H. Neugebauer, J. Pisarek, C. Plett, P. Pracht, F. Pultar,
   J. Seibert, P. Shushkov, S. Spicher, M. Stahn, M. Steiner, T. Strunk,
   J. Stückrath, T. Rose, and J. Unsleber
   
 * started run on 2026/07/30 at 19:57:35.928     
   ID    Z sym.   atoms
    1    6 C      1-7
    2    8 O      8, 9, 11, 12
    3   16 S      10
    4    7 N      13
    5    1 H      14-20

           -------------------------------------------------
          |                Calculation Setup                |
           -------------------------------------------------

          program call               : xtb Mol_2.xyz --gfn 2 --sp --alpb acetonitrile
          coordinate file            : Mol_2.xyz
          omp threads                :                    32


           -------------------------------------------------
          |                 G F N 2 - x T B                 |
           -------------------------------------------------

        Reference                      10.1021/acs.jctc.8b01176
      * Hamiltonian:
        H0-scaling (s, p, d)           1.850000    2.230000    2.230000
        zeta-weighting                 0.500000
      * Dispersion:
        s8                             2.700000
        a1                             0.520000
        a2                             5.000000
        s9                             5.000000
      * Repulsion:
        kExp                           1.500000    1.000000
        rExp                           1.000000
      * Coulomb:
        alpha                          2.000000
        third order                    shell-resolved
        anisotropic                    true
        a3                             3.000000
        a5                             4.000000
        cn-shift                       1.200000
        cn-exp                         4.000000
        max-rad                        5.000000

      * Solvation model:               ALPB
        Solvent                        acetonitrile
        Parameter file                 internal GFN2-xTB/ALPB
        Dielectric constant                3.7500E+01
        Reference state                gsolv [1 M gas/solution]
        Free energy shift                  5.1987E-03 Eh       3.2622E+00 kcal/mol
        Temperature                        2.9815E+02 K
        Density                            7.8600E-01 kg/L
        Solvent mass                       4.1050E+01 g/mol
        Interaction kernel             P16
        Born radius scaling (c1)           1.7214E+00
        Born radii integrator          GBOBC
        Born offset                        0.0000E+00 a0       0.0000E+00 AA
        H-bond correction              true
        Ion screening                  false
        Surface tension                    1.0000E-05 Eh       1.5569E+01 dyn/cm
        Grid points                               230 per atom

          ...................................................
          :                      SETUP                      :
          :.................................................:
          :  # basis functions                  65          :
          :  # atomic orbitals                  64          :
          :  # shells                           34          :
          :  # electrons                        70          :
          :  max. iterations                   250          :
          :  Hamiltonian                  GFN2-xTB          :
          :  restarted?                      false          :
          :  GBSA solvation                   true          :
          :  PC potential                    false          :
          :  electronic temp.          300.0000000     K    :
          :  accuracy                    1.0000000          :
          :  -> integral cutoff          0.2500000E+02      :
          :  -> integral neglect         0.1000000E-07      :
          :  -> SCF convergence          0.1000000E-05 Eh   :
          :  -> wf. convergence          0.1000000E-03 e    :
          :  Broyden damping             0.4000000          :
          :  net charge                          0          :
          :  unpaired electrons                  0          :
          ...................................................

 iter      E             dE          RMSdq      gap      omega  full diag
   1    -41.3584348 -0.413584E+02  0.609E+00    2.41       0.0  T
   2    -41.4207492 -0.623144E-01  0.348E+00    3.23       1.0  T
   3    -41.4206862  0.629691E-04  0.148E+00    3.34       1.0  T
   4    -41.4253961 -0.470989E-02  0.525E-01    3.31       1.0  T
   5    -41.4281669 -0.277073E-02  0.261E-01    3.33       1.0  T
   6    -41.4283628 -0.195965E-03  0.140E-01    3.33       1.0  T
   7    -41.4284560 -0.932146E-04  0.614E-02    3.31       1.0  T
   8    -41.4284634 -0.734228E-05  0.207E-02    3.31       1.1  T
   9    -41.4284654 -0.201579E-05  0.852E-03    3.31       2.6  T
  10    -41.4284661 -0.653811E-06  0.432E-03    3.31       5.2  T
  11    -41.4284661 -0.405278E-07  0.113E-03    3.31      19.7  T
  12    -41.4284661 -0.715607E-08  0.547E-04    3.31      40.9  T
  13    -41.4284661 -0.150379E-08  0.240E-04    3.31      93.4  T

   *** convergence criteria satisfied after 13 iterations ***

         #    Occupation            Energy/Eh            Energy/eV
      -------------------------------------------------------------
         1        2.0000           -0.7873322             -21.4244
       ...           ...                  ...                  ...
        29        2.0000           -0.4558318             -12.4038
        30        2.0000           -0.4507471             -12.2655
        31        2.0000           -0.4438407             -12.0775
        32        2.0000           -0.4392889             -11.9537
        33        2.0000           -0.4373506             -11.9009
        34        2.0000           -0.4281541             -11.6507
        35        2.0000           -0.4234966             -11.5239 (HOMO)
        36                         -0.3018010              -8.2124 (LUMO)
        37                         -0.2601783              -7.0798
        38                         -0.2245992              -6.1117
        39                         -0.1394948              -3.7958
        40                         -0.1233422              -3.3563
       ...                                ...                  ...
        64                          1.1387964              30.9882
      -------------------------------------------------------------
                  HL-Gap            0.1216955 Eh            3.3115 eV
             Fermi-level           -0.3626488 Eh           -9.8682 eV

 SCC (total)                   0 d,  0 h,  0 min,  0.032 sec
 SCC setup                      ...        0 min,  0.001 sec (  2.140%)
 Dispersion                     ...        0 min,  0.000 sec (  1.190%)
 classical contributions        ...        0 min,  0.000 sec (  0.366%)
 integral evaluation            ...        0 min,  0.008 sec ( 25.952%)
 iterations                     ...        0 min,  0.020 sec ( 61.058%)
 molecular gradient             ...        0 min,  0.003 sec (  7.916%)
 printout                       ...        0 min,  0.000 sec (  1.302%)

         :::::::::::::::::::::::::::::::::::::::::::::::::::::
         ::                     SUMMARY                     ::
         :::::::::::::::::::::::::::::::::::::::::::::::::::::
         :: total energy             -40.996729805464 Eh    ::
         :: total w/o Gsasa/hb       -40.975898702892 Eh    ::
         :: gradient norm              0.298994365346 Eh/a0 ::
         :: HOMO-LUMO gap              3.311504397088 eV    ::
         ::.................................................::
         :: SCC energy               -41.428473809463 Eh    ::
         :: -> isotropic ES            0.129996691045 Eh    ::
         :: -> anisotropic ES         -0.009874231286 Eh    ::
         :: -> anisotropic XC          0.009841949097 Eh    ::
         :: -> dispersion             -0.020216364232 Eh    ::
         :: -> Gsolv                  -0.032098738996 Eh    ::
         ::    -> Gelec               -0.011267636424 Eh    ::
         ::    -> Gsasa               -0.019865739415 Eh    ::
         ::    -> Ghb                 -0.006164017908 Eh    ::
         ::    -> Gshift               0.005198654751 Eh    ::
         :: repulsion energy           0.431744003998 Eh    ::
         :: add. restraining           0.000000000000 Eh    ::
         :: total charge               0.000000000000 e     ::
         :::::::::::::::::::::::::::::::::::::::::::::::::::::

           -------------------------------------------------
          |                Property Printout                |
           -------------------------------------------------

    * Orbital Energies and Occupations

         #    Occupation            Energy/Eh            Energy/eV
      -------------------------------------------------------------
         1        2.0000           -0.7873322             -21.4244
       ...           ...                  ...                  ...
        23        2.0000           -0.5092232             -13.8567
        24        2.0000           -0.5033994             -13.6982
        25        2.0000           -0.4882163             -13.2850
        26        2.0000           -0.4836976             -13.1621
        27        2.0000           -0.4731579             -12.8753
        28        2.0000           -0.4671609             -12.7121
        29        2.0000           -0.4558318             -12.4038
        30        2.0000           -0.4507471             -12.2655
        31        2.0000           -0.4438407             -12.0775
        32        2.0000           -0.4392889             -11.9537
        33        2.0000           -0.4373506             -11.9009
        34        2.0000           -0.4281541             -11.6507
        35        2.0000           -0.4234966             -11.5239 (HOMO)
        36                         -0.3018010              -8.2124 (LUMO)
        37                         -0.2601783              -7.0798
        38                         -0.2245992              -6.1117
        39                         -0.1394948              -3.7958
        40                         -0.1233422              -3.3563
        41                         -0.0741333              -2.0173
        42                         -0.0712032              -1.9375
        43                         -0.0532494              -1.4490
        44                          0.0544524               1.4817
        45                          0.0712981               1.9401
        46                          0.0983627               2.6766
       ...                                ...                  ...
        64                          1.1387964              30.9882
      -------------------------------------------------------------
                  HL-Gap            0.1216955 Eh            3.3115 eV
             Fermi-level           -0.3626488 Eh           -9.8682 eV

     #   Z          covCN         q      C6AA      α(0)
     1   6 C        2.916    -0.016    28.405     8.740
     2   6 C        2.949    -0.023    28.586     8.769
     3   6 C        2.960    -0.073    29.825     8.958
     4   6 C        2.948    -0.024    28.604     8.772
     5   6 C        2.913    -0.016    28.401     8.739
     6   6 C        2.963    -0.005    28.136     8.700
     7   6 C        2.696     0.353    20.998     7.500
     8   8 O        0.856    -0.438    22.451     6.353
     9   8 O        1.658    -0.389    20.641     6.133
    10  16 S        3.693     1.122   103.217    17.099
    11   8 O        0.860    -0.599    26.086     6.848
    12   8 O        0.860    -0.600    26.119     6.852
    13   7 N        2.632    -0.471    32.431     8.458
    14   1 H        0.925     0.087     1.912     2.162
    15   1 H        0.925     0.079     1.987     2.204
    16   1 H        0.925     0.081     1.964     2.191
    17   1 H        0.925     0.095     1.835     2.118
    18   1 H        0.804     0.380     0.522     1.135
    19   1 H        0.863     0.228     0.973     1.545
    20   1 H        0.863     0.227     0.976     1.547

 Mol. C6AA /au·bohr⁶  :       6402.312253
 Mol. C8AA /au·bohr⁸  :     168169.508086
 Mol. α(0) /au        :        124.824304


Wiberg/Mayer (AO) data.
largest (>0.10) Wiberg bond orders for each atom

 ---------------------------------------------------------------------------
     #   Z sym  total        # sym  WBO       # sym  WBO       # sym  WBO
 ---------------------------------------------------------------------------
     1   6 C    3.984 --     2 C    1.447     6 C    1.386    14 H    0.962
                             4 C    0.108
     2   6 C    3.984 --     1 C    1.447     3 C    1.414    15 H    0.963
                             5 C    0.109
     3   6 C    3.969 --     2 C    1.414     4 C    1.414    10 S    0.759
     4   6 C    3.984 --     5 C    1.446     3 C    1.414    16 H    0.962
                             1 C    0.108
     5   6 C    3.982 --     4 C    1.446     6 C    1.388    17 H    0.960
                             2 C    0.109
     6   6 C    3.988 --     5 C    1.388     1 C    1.386     7 C    1.011
     7   6 C    3.921 --     8 O    1.714     9 O    1.149     6 C    1.011
     8   8 O    2.011 --     7 C    1.714     9 O    0.176
     9   8 O    2.196 --     7 C    1.149    18 H    0.833     8 O    0.176
    10  16 S    4.967 --    11 O    1.593    12 O    1.592    13 N    0.962
                             3 C    0.759
    11   8 O    1.893 --    10 S    1.593    12 O    0.110
    12   8 O    1.892 --    10 S    1.592    11 O    0.110
    13   7 N    3.073 --    10 S    0.962    20 H    0.930    19 H    0.930
    14   1 H    0.992 --     1 C    0.962
    15   1 H    0.993 --     2 C    0.963
    16   1 H    0.993 --     4 C    0.962
    17   1 H    0.990 --     5 C    0.960
    18   1 H    0.855 --     9 O    0.833
    19   1 H    0.948 --    13 N    0.930
    20   1 H    0.948 --    13 N    0.930
 ---------------------------------------------------------------------------

Topologies differ in total number of bonds
Writing topology from bond orders to xtbtopo.mol

molecular dipole:
                 x           y           z       tot (Debye)
 q only:       -0.654      -0.371       1.664
   full:       -0.428      -0.312       1.581       4.239
molecular quadrupole (traceless):
                xx          xy          yy          xz          yz          zz
 q only:        2.073     -17.407      -1.456       6.310       3.254      -0.617
  q+dip:        7.010     -17.153      -3.758       4.693       4.866      -3.253
   full:        6.058     -18.227      -3.912       5.682       2.340      -2.146


           -------------------------------------------------
          | TOTAL ENERGY              -40.996729805464 Eh   |
          | GRADIENT NORM               0.298994365346 Eh/α |
          | HOMO-LUMO GAP               3.311504397088 eV   |
           -------------------------------------------------

------------------------------------------------------------------------
 * finished run on 2026/07/30 at 19:57:35.985     
------------------------------------------------------------------------
 total:
 * wall-time:     0 d,  0 h,  0 min,  0.056 sec
 *  cpu-time:     0 d,  0 h,  0 min,  0.141 sec
 * ratio c/w:     2.524 speedup
 SCF:
 * wall-time:     0 d,  0 h,  0 min,  0.033 sec
 *  cpu-time:     0 d,  0 h,  0 min,  0.125 sec
 * ratio c/w:     3.838 speedup

