18
Mol_16
C -1.794403 0.407092 -0.563434
C -1.210770 -0.529500 0.468318
C 0.250777 -0.829118 0.118320
C 1.002102 0.449189 0.111489
N 2.401126 0.323386 -0.204071
I 0.857815 0.000000 0.000000
H -2.828285 0.063288 -0.807242
H -1.152157 0.409340 -1.470050
H -1.858961 1.447767 -0.172488
H -1.803690 -1.454322 0.593750
H -1.170128 0.021234 1.442066
H 0.291458 -1.306534 -0.899457
H 0.640703 -1.569237 0.820541
H 0.501245 1.168616 -0.544623
H 0.980209 0.875999 1.148523
H 2.948993 1.131946 0.109927
H 2.801779 -0.609148 0.002717
H -0.857815 0.000000 0.000000
