      -----------------------------------------------------------      
     |                   =====================                   |     
     |                           x T B                           |     
     |                   =====================                   |     
     |                         S. Grimme                         |     
     |          Mulliken Center for Theoretical Chemistry        |     
     |                    University of Bonn                     |     
      -----------------------------------------------------------      

   * xtb version 6.7.1 (edcfbbe) compiled by 'VssAdministrator@runnervmowedg' on 2025-09-04

   xtb is free software: you can redistribute it and/or modify it under
   the terms of the GNU Lesser General Public License as published by
   the Free Software Foundation, either version 3 of the License, or
   (at your option) any later version.
   
   xtb is distributed in the hope that it will be useful,
   but WITHOUT ANY WARRANTY; without even the implied warranty of
   MERCHANTABILITY or FITNESS FOR A PARTICULAR PURPOSE.  See the
   GNU Lesser General Public License for more details.
   
   Cite this work as:
   * C. Bannwarth, E. Caldeweyher, S. Ehlert, A. Hansen, P. Pracht,
     J. Seibert, S. Spicher, S. Grimme, WIREs Comput. Mol. Sci., 2020, 11,
     e01493. DOI: 10.1002/wcms.1493
   
   for GFN2-xTB:
   * C. Bannwarth, S. Ehlert and S. Grimme., J. Chem. Theory Comput., 2019,
     15, 1652-1671. DOI: 10.1021/acs.jctc.8b01176
   for GFN1-xTB:
   * S. Grimme, C. Bannwarth, P. Shushkov, J. Chem. Theory Comput., 2017,
     13, 1989-2009. DOI: 10.1021/acs.jctc.7b00118
   for GFN0-xTB:
   * P. Pracht, E. Caldeweyher, S. Ehlert, S. Grimme, ChemRxiv, 2019, preprint.
     DOI: 10.26434/chemrxiv.8326202.v1
   for GFN-FF:
   * S. Spicher and S. Grimme, Angew. Chem. Int. Ed., 2020, 59, 15665-15673.
     DOI: 10.1002/anie.202004239
   
   for ALPB and GBSA implicit solvation:
   * S. Ehlert, M. Stahn, S. Spicher, S. Grimme, J. Chem. Theory Comput.,
     2021, 17, 4250-4261. DOI: 10.1021/acs.jctc.1c00471
   
   for ddCOSMO and CPCM-X implicit solvation:
   * M. Stahn, S. Ehlert, S. Grimme, J. Phys. Chem. A,
     2023, XX, XXXX-XXXX. DOI: 10.1021/acs.jpca.3c04382
   
   for DFT-D4:
   * E. Caldeweyher, C. Bannwarth and S. Grimme, J. Chem. Phys., 2017,
     147, 034112. DOI: 10.1063/1.4993215
   * E. Caldeweyher, S. Ehlert, A. Hansen, H. Neugebauer, S. Spicher,
     C. Bannwarth and S. Grimme, J. Chem. Phys., 2019, 150, 154122.
     DOI: 10.1063/1.5090222
   * E. Caldeweyher, J.-M. Mewes, S. Ehlert and S. Grimme, Phys. Chem. Chem. Phys.
     2020, 22, 8499-8512. DOI: 10.1039/D0CP00502A
   
   for sTDA-xTB:
   * S. Grimme and C. Bannwarth, J. Chem. Phys., 2016, 145, 054103.
     DOI: 10.1063/1.4959605
   
   in the mass-spec context:
   * V. Asgeirsson, C. Bauer and S. Grimme, Chem. Sci., 2017, 8, 4879.
     DOI: 10.1039/c7sc00601b
   * J. Koopman and S. Grimme, ACS Omega 2019, 4, 12, 15120-15133.
     DOI: 10.1021/acsomega.9b02011
   
   for metadynamics refer to:
   * S. Grimme, J. Chem. Theory Comput., 2019, 155, 2847-2862
     DOI: 10.1021/acs.jctc.9b00143
   
   for SPH calculations refer to:
   * S. Spicher and S. Grimme, J. Chem. Theory Comput., 2021, 17, 1701-1714
     DOI: 10.1021/acs.jctc.0c01306
   
   for ONIOM refer to:
   * C. Plett, A. Katbashev, S. Ehlert, S. Grimme, M. Bursch,
     Phys. Chem. Chem. Phys., 2023, 25, 17860-17868. DOI: 10.1039/D3CP02178E
   
   for DIPRO refer to:
   * J. Kohn, N. Gildemeister, S. Grimme, D. Fazzi, A. Hansen,
     J. Chem. Phys., 2023, just accepted.
   
   for PTB refer to:
   * S. Grimme, M. Mueller, A. Hansen, J. Chem. Phys., 2023, 158, 124111.
     DOI: 10.1063/5.0137838
   
   with help from (in alphabetical order)
   P. Atkinson, C. Bannwarth, F. Bohle, G. Brandenburg, E. Caldeweyher
   M. Checinski, S. Dohm, S. Ehlert, S. Ehrlich, I. Gerasimov, C. Hölzer
   A. Katbashev, J. Kohn, J. Koopman, C. Lavigne, S. Lehtola, F. März, M. Müller,
   F. Musil, H. Neugebauer, J. Pisarek, C. Plett, P. Pracht, F. Pultar,
   J. Seibert, P. Shushkov, S. Spicher, M. Stahn, M. Steiner, T. Strunk,
   J. Stückrath, T. Rose, and J. Unsleber
   
 * started run on 2026/07/30 at 19:57:31.521     
   ID    Z sym.   atoms
    1    6 C      1-4
    2    7 N      5
    3   53 I      6
    4    1 H      7-18

           -------------------------------------------------
          |                Calculation Setup                |
           -------------------------------------------------

          program call               : xtb Mol_16.xyz --gfn 2 --sp --alpb acetonitrile
          coordinate file            : Mol_16.xyz
          omp threads                :                    32


           -------------------------------------------------
          |                 G F N 2 - x T B                 |
           -------------------------------------------------

        Reference                      10.1021/acs.jctc.8b01176
      * Hamiltonian:
        H0-scaling (s, p, d)           1.850000    2.230000    2.230000
        zeta-weighting                 0.500000
      * Dispersion:
        s8                             2.700000
        a1                             0.520000
        a2                             5.000000
        s9                             5.000000
      * Repulsion:
        kExp                           1.500000    1.000000
        rExp                           1.000000
      * Coulomb:
        alpha                          2.000000
        third order                    shell-resolved
        anisotropic                    true
        a3                             3.000000
        a5                             4.000000
        cn-shift                       1.200000
        cn-exp                         4.000000
        max-rad                        5.000000

      * Solvation model:               ALPB
        Solvent                        acetonitrile
        Parameter file                 internal GFN2-xTB/ALPB
        Dielectric constant                3.7500E+01
        Reference state                gsolv [1 M gas/solution]
        Free energy shift                  5.1987E-03 Eh       3.2622E+00 kcal/mol
        Temperature                        2.9815E+02 K
        Density                            7.8600E-01 kg/L
        Solvent mass                       4.1050E+01 g/mol
        Interaction kernel             P16
        Born radius scaling (c1)           1.7214E+00
        Born radii integrator          GBOBC
        Born offset                        0.0000E+00 a0       0.0000E+00 AA
        H-bond correction              true
        Ion screening                  false
        Surface tension                    1.0000E-05 Eh       1.5569E+01 dyn/cm
        Grid points                               230 per atom

          ...................................................
          :                      SETUP                      :
          :.................................................:
          :  # basis functions                  42          :
          :  # atomic orbitals                  41          :
          :  # shells                           25          :
          :  # electrons                        40          :
          :  max. iterations                   250          :
          :  Hamiltonian                  GFN2-xTB          :
          :  restarted?                      false          :
          :  GBSA solvation                   true          :
          :  PC potential                    false          :
          :  electronic temp.          300.0000000     K    :
          :  accuracy                    1.0000000          :
          :  -> integral cutoff          0.2500000E+02      :
          :  -> integral neglect         0.1000000E-07      :
          :  -> SCF convergence          0.1000000E-05 Eh   :
          :  -> wf. convergence          0.1000000E-03 e    :
          :  Broyden damping             0.4000000          :
          :  net charge                          0          :
          :  unpaired electrons                  0          :
          ...................................................

 iter      E             dE          RMSdq      gap      omega  full diag
   1    -18.9610493 -0.189610E+02  0.282E+01    1.02       0.0  T
   2    -18.5668876  0.394162E+00  0.139E+01    0.81       1.0  T
   3    -18.5176632  0.492244E-01  0.116E+01    1.88       1.0  T
   4    -19.7463881 -0.122872E+01  0.846E+00    0.68       1.0  T
   5    -19.8505988 -0.104211E+00  0.779E+00    0.79       1.0  T
   6    -19.5921664  0.258432E+00  0.857E+00    0.77       1.0  T
   7    -19.7748048 -0.182638E+00  0.834E+00    0.88       1.0  T
   8    -20.9784783 -0.120367E+01  0.855E+00    1.64       1.0  T
   9    -20.9302183  0.482599E-01  0.849E+00    1.55       1.0  T
  10    -19.2575976  0.167262E+01  0.813E+00    0.50       1.0  T
  11    -19.0744322  0.183165E+00  0.108E+01    0.69       1.0  T
  12    -25.4647285 -0.639030E+01  0.124E+01    1.32       1.0  T
  13    -25.5893624 -0.124634E+00  0.121E+01    1.32       1.0  T
  14    -22.8991721  0.269019E+01  0.895E+00    1.72       1.0  T
  15    -22.8167243  0.824479E-01  0.802E+00    1.67       1.0  T
  16    -26.6122586 -0.379553E+01  0.683E+00    0.62       1.0  T
  17    -26.6125186 -0.259964E-03  0.675E+00    0.65       1.0  T
  18    -26.7114312 -0.989126E-01  0.535E+00    0.53       1.0  T
  19    -26.7466583 -0.352272E-01  0.444E+00    0.50       1.0  T
  20    -26.8895817 -0.142923E+00  0.242E+00    0.42       1.0  T
  21    -26.8082434  0.813383E-01  0.360E+00    0.58       1.0  T
  22    -26.8774958 -0.692524E-01  0.206E+00    0.50       1.0  T
  23    -26.8732094  0.428636E-02  0.192E+00    0.51       1.0  T
  24    -26.9093570 -0.361476E-01  0.670E-01    0.42       1.0  T
  25    -26.9093825 -0.254705E-04  0.627E-01    0.42       1.0  T
  26    -26.9094667 -0.842501E-04  0.536E-01    0.44       1.0  T
  27    -26.9073654  0.210131E-02  0.649E-01    0.45       1.0  T
  28    -26.9097662 -0.240079E-02  0.403E-01    0.48       1.0  T
  29    -26.9107227 -0.956499E-03  0.246E-01    0.49       1.0  T
  30    -26.9111210 -0.398293E-03  0.117E-01    0.50       1.0  T
  31    -26.9112598 -0.138795E-03  0.231E-02    0.50       1.0  T
  32    -26.9112309  0.289013E-04  0.590E-02    0.50       1.0  T
  33    -26.9112597 -0.287733E-04  0.178E-02    0.49       1.3  T
  34    -26.9112601 -0.488024E-06  0.127E-02    0.49       1.9  T
  35    -26.9112607 -0.562204E-06  0.270E-03    0.49       8.7  T
  36    -26.9112607 -0.300766E-07  0.138E-03    0.49      17.1  T
  37    -26.9112607  0.330251E-07  0.205E-03    0.49      11.5  T
  38    -26.9112607 -0.413074E-07  0.634E-04    0.49      37.2  T
  39    -26.9112607 -0.222085E-08  0.252E-04    0.49      93.5  T

   *** convergence criteria satisfied after 39 iterations ***

         #    Occupation            Energy/Eh            Energy/eV
      -------------------------------------------------------------
         1        2.0000           -5.4032944            -147.0311
       ...           ...                  ...                  ...
        14        2.0000           -0.3996697             -10.8756
        15        2.0000           -0.3706801             -10.0867
        16        2.0000           -0.3362711              -9.1504
        17        2.0000           -0.2737683              -7.4496
        18        2.0000           -0.0713863              -1.9425
        19        2.0000           -0.0320288              -0.8715
        20        1.9999            0.0736483               2.0041 (HOMO)
        21        0.0001            0.0917949               2.4979 (LUMO)
        22                          0.1319987               3.5919
        23                          0.1365303               3.7152
        24                          0.1554735               4.2306
        25                          0.1877354               5.1085
       ...                                ...                  ...
        41                          9.2581833             251.9280
      -------------------------------------------------------------
                  HL-Gap            0.0181466 Eh            0.4938 eV
             Fermi-level            0.0827216 Eh            2.2510 eV

 SCC (total)                   0 d,  0 h,  0 min,  0.046 sec
 SCC setup                      ...        0 min,  0.001 sec (  1.275%)
 Dispersion                     ...        0 min,  0.000 sec (  0.626%)
 classical contributions        ...        0 min,  0.000 sec (  0.236%)
 integral evaluation            ...        0 min,  0.007 sec ( 16.157%)
 iterations                     ...        0 min,  0.035 sec ( 77.153%)
 molecular gradient             ...        0 min,  0.002 sec (  3.822%)
 printout                       ...        0 min,  0.000 sec (  0.680%)

         :::::::::::::::::::::::::::::::::::::::::::::::::::::
         ::                     SUMMARY                     ::
         :::::::::::::::::::::::::::::::::::::::::::::::::::::
         :: total energy              88.865668413048 Eh    ::
         :: total w/o Gsasa/hb        88.898001527876 Eh    ::
         :: gradient norm            403.392376146177 Eh/a0 ::
         :: HOMO-LUMO gap              0.493792879877 eV    ::
         ::.................................................::
         :: SCC energy               -26.911251537881 Eh    ::
         :: -> isotropic ES          -17.496630094634 Eh    ::
         :: -> anisotropic ES         -0.051723771383 Eh    ::
         :: -> anisotropic XC          0.035552556455 Eh    ::
         :: -> dispersion             -0.022204634424 Eh    ::
         :: -> Gsolv                  -0.058529934982 Eh    ::
         ::    -> Gelec               -0.026196820154 Eh    ::
         ::    -> Gsasa               -0.010532460433 Eh    ::
         ::    -> Ghb                 -0.026999309146 Eh    ::
         ::    -> Gshift               0.005198654751 Eh    ::
         :: repulsion energy         115.776919950929 Eh    ::
         :: add. restraining           0.000000000000 Eh    ::
         :: total charge              -0.000000000000 e     ::
         :::::::::::::::::::::::::::::::::::::::::::::::::::::

           -------------------------------------------------
          |                Property Printout                |
           -------------------------------------------------

    * Orbital Energies and Occupations

         #    Occupation            Energy/Eh            Energy/eV
      -------------------------------------------------------------
         1        2.0000           -5.4032944            -147.0311
       ...           ...                  ...                  ...
         8        2.0000           -0.5227578             -14.2250
         9        2.0000           -0.4867960             -13.2464
        10        2.0000           -0.4712312             -12.8229
        11        2.0000           -0.4515433             -12.2871
        12        2.0000           -0.4431739             -12.0594
        13        2.0000           -0.4294816             -11.6868
        14        2.0000           -0.3996697             -10.8756
        15        2.0000           -0.3706801             -10.0867
        16        2.0000           -0.3362711              -9.1504
        17        2.0000           -0.2737683              -7.4496
        18        2.0000           -0.0713863              -1.9425
        19        2.0000           -0.0320288              -0.8715
        20        1.9999            0.0736483               2.0041 (HOMO)
        21        0.0001            0.0917949               2.4979 (LUMO)
        22                          0.1319987               3.5919
        23                          0.1365303               3.7152
        24                          0.1554735               4.2306
        25                          0.1877354               5.1085
        26                          0.2189113               5.9569
        27                          0.2401348               6.5344
        28                          0.2622896               7.1373
        29                          0.2786303               7.5819
        30                          0.3084392               8.3931
        31                          0.5278525              14.3636
       ...                                ...                  ...
        41                          9.2581833             251.9280
      -------------------------------------------------------------
                  HL-Gap            0.0181466 Eh            0.4938 eV
             Fermi-level            0.0827216 Eh            2.2510 eV

     #   Z          covCN         q      C6AA      α(0)
     1   6 C        5.159    -0.220    24.765     7.067
     2   6 C        5.683    -0.229    24.962     7.096
     3   6 C        5.334     1.780     5.740     3.402
     4   6 C        4.703     3.197     2.677     2.324
     5   7 N        3.554     0.651    12.444     5.239
     6  53 I        9.821    -8.147  2654.602    88.941
     7   1 H        0.920    -0.273    18.315     6.693
     8   1 H        0.968     0.224     0.982     1.549
     9   1 H        0.921    -0.104     5.688     3.730
    10   1 H        0.922    -0.426    63.006    12.413
    11   1 H        0.985     0.067     2.114     2.272
    12   1 H        1.827     0.555     0.273     0.816
    13   1 H        1.816     0.301     0.700     1.306
    14   1 H        1.839     0.666     0.194     0.687
    15   1 H        1.834     0.542     0.286     0.834
    16   1 H        1.018     0.059     2.203     2.319
    17   1 H        1.559     0.562     0.268     0.808
    18   1 H        3.307     0.795     0.134     0.572

 Mol. C6AA /au·bohr⁶  :       8205.221524
 Mol. C8AA /au·bohr⁸  :     435576.455539
 Mol. α(0) /au        :        148.068038


Wiberg/Mayer (AO) data.
largest (>0.10) Wiberg bond orders for each atom

 ---------------------------------------------------------------------------
     #   Z sym  total        # sym  WBO       # sym  WBO       # sym  WBO
 ---------------------------------------------------------------------------
     1   6 C    3.852 --     2 C    0.970     9 H    0.866     8 H    0.750
                             7 H    0.714     5 N    0.148     3 C    0.110
     2   6 C    3.680 --     1 C    0.970    11 H    0.731     5 N    0.550
                            10 H    0.482    18 H    0.210    15 H    0.136
                            13 H    0.122
     3   6 C    1.889 --     4 C    0.881     5 N    0.835    14 H    0.296
                            16 H    0.293    15 H    0.226     1 C    0.110
     4   6 C    1.392 --     3 C    0.881     5 N    0.275    12 H    0.229
     5   7 N    3.098 --     3 C    0.835    16 H    0.597     2 C    0.550
                            17 H    0.329     4 C    0.275    18 H    0.252
                            13 H    0.170    15 H    0.168     1 C    0.148
                            12 H    0.137    11 H    0.131     8 H    0.113
                            14 H    0.108
     6  53 I   -5.967
     7   1 H    0.915 --     1 C    0.714
     8   1 H    0.950 --     1 C    0.750     5 N    0.113
     9   1 H    0.989 --     1 C    0.866
    10   1 H    0.798 --     2 C    0.482
    11   1 H    0.995 --     2 C    0.731     5 N    0.131
    12   1 H    0.692 --     4 C    0.229    13 H    0.213    15 H    0.153
                             5 N    0.137
    13   1 H    0.909 --    12 H    0.213     5 N    0.170    18 H    0.169
                            14 H    0.164     2 C    0.122    15 H    0.117
    14   1 H    0.557 --     3 C    0.296    15 H    0.240    13 H    0.164
                             5 N    0.108
    15   1 H    0.706 --    14 H    0.240     3 C    0.226     5 N    0.168
                            12 H    0.153    17 H    0.143     2 C    0.136
                            13 H    0.117    18 H    0.115
    16   1 H    0.975 --     5 N    0.597     3 C    0.293
    17   1 H    0.675 --     5 N    0.329    15 H    0.143    18 H    0.137
    18   1 H    0.367 --     5 N    0.252     2 C    0.210    13 H    0.169
                            17 H    0.137    15 H    0.115
 ---------------------------------------------------------------------------

Topologies differ in total number of bonds
Writing topology from bond orders to xtbtopo.mol

molecular dipole:
                 x           y           z       tot (Debye)
 q only:        4.869       0.995       0.414
   full:        2.561      -0.807       1.592       7.933
molecular quadrupole (traceless):
                xx          xy          yy          xz          yz          zz
 q only:       -0.273       1.445       6.093       2.841       3.841      -5.820
  q+dip:      -19.116      -4.110      19.122       6.072       5.755      -0.006
   full:       -8.193      -4.870      11.332       5.214       4.011      -3.139


           -------------------------------------------------
          | TOTAL ENERGY               88.865668413048 Eh   |
          | GRADIENT NORM             403.392376146177 Eh/α |
          | HOMO-LUMO GAP               0.493792879877 eV   |
           -------------------------------------------------

------------------------------------------------------------------------
 * finished run on 2026/07/30 at 19:57:31.589     
------------------------------------------------------------------------
 total:
 * wall-time:     0 d,  0 h,  0 min,  0.067 sec
 *  cpu-time:     0 d,  0 h,  0 min,  0.125 sec
 * ratio c/w:     1.876 speedup
 SCF:
 * wall-time:     0 d,  0 h,  0 min,  0.046 sec
 *  cpu-time:     0 d,  0 h,  0 min,  0.109 sec
 * ratio c/w:     2.374 speedup

